     Program PWSCF v.6.3MaX starts on 17Feb2020 at  9:34:57

     R & G space division:  proc/nbgrp/npool/nimage =       4
     Waiting for input...
     Reading input from standard input

     Current dimensions of program PWSCF are:
     Max number of different atomic species (ntypx) = 10
     Max number of k-points (npk) =  40000
     Max angular momentum in pseudopotentials (lmaxx) =  3
     Message from routine iosys:
     minimal I/O required, wf_collect reset to FALSE

     Subspace diagonalization in iterative solution of the eigenvalue problem:
     a serial algorithm will be used

     bravais-lattice index     =            0
     lattice parameter (alat)  =       1.8897  a.u.
     unit-cell volume          =     808.3427 (a.u.)^3
     number of atoms/cell      =            6
     number of atomic types    =            2
     number of electrons       =        74.00
     number of Kohn-Sham states=           44
     kinetic-energy cutoff     =      40.0000  Ry
     charge density cutoff     =     400.0000  Ry
     convergence threshold     =      1.0E-10
     mixing beta               =       0.6000
     number of iterations used =            8  plain     mixing
     Exchange-correlation      = SLA PW PBE PBE ( 1  4  3  4 0 0)
     nstep                     =           50

     celldm(1)=   1.889726  celldm(2)=   0.000000  celldm(3)=   0.000000
     celldm(4)=   0.000000  celldm(5)=   0.000000  celldm(6)=   0.000000

     crystal axes: (cart. coord. in units of alat)
               a(1) = (  -3.045004   0.000000   4.972461 )
               a(2) = (  -1.522502   2.637051   4.972461 )
               a(3) = (  -4.567506   2.637051  -4.972461 )

     reciprocal axes: (cart. coord. in units 2 pi/alat)
               b(1) = ( -0.218938 -0.252808  0.067036 )
               b(2) = (  0.109469  0.316010  0.067036 )
               b(3) = ( -0.109469  0.063202 -0.067036 )

     PseudoPot. # 1 for Nb read from file:
     ./Nb.pbe-nsp-van.UPF
     MD5 check sum: 0a22fc7fb0ba19a08ca5db297a5d2854
     Pseudo is Ultrasoft + core correction, Zval = 13.0
     Generated by new atomic code, or converted to UPF format
     Using radial grid of  887 points,  6 beta functions with:
                l(1) =   0
                l(2) =   0
                l(3) =   1
                l(4) =   1
                l(5) =   2
                l(6) =   2
     Q(r) pseudized with  6 coefficients,  rinner =    1.000   1.000   1.000
                                                       1.000   1.000

     PseudoPot. # 2 for Ti read from file:
     ./Ti.pbe-sp-van_ak.UPF
     MD5 check sum: f98fea3e8887528921fefa5636a534ca
     Pseudo is Ultrasoft, Zval = 12.0
     Generated by new atomic code, or converted to UPF format
     Using radial grid of  851 points,  6 beta functions with:
                l(1) =   0
                l(2) =   0
                l(3) =   1
                l(4) =   1
                l(5) =   2
                l(6) =   2
     Q(r) pseudized with  8 coefficients,  rinner =    1.000   1.000   1.000
                                                       1.000   1.000

     atomic species   valence    mass     pseudopotential
        Nb            13.00    92.90638     Nb( 1.00)
        Ti            12.00    47.86700     Ti( 1.00)

      2 Sym. Ops. (no inversion) found

   Cartesian axes

     site n.     atom                  positions (alat units)
         1           Nb  tau(   1) = (  -4.5675063   2.6370512   0.0000000  )
         2           Ti  tau(   2) = (  -6.0900069   3.5160674   2.4862307  )
         3           Ti  tau(   3) = (  -4.5675063   2.6370512   4.9724614  )
         4           Ti  tau(   4) = (  -6.0900069   3.5160674   7.4586921  )
         5           Ti  tau(   5) = (  -9.1350127   5.2741024   4.9724614  )
         6           Nb  tau(   6) = (  -1.5225006   0.8790162   2.4862307  )

     number of k points=   398  Marzari-Vanderbilt smearing, width (Ry)=  0.0200

     Number of k-points >= 100: set verbosity='high' to print them.

     Initial potential from superposition of free atoms

     starting charge   69.99436, renormalised to   74.00000
     Starting wfcs are   66 randomized atomic wfcs

     Self-consistent Calculation

     iteration #  1     ecut=    40.00 Ry     beta= 0.60
     Davidson diagonalization with overlap
     ethr =  1.00E-02,  avg # of iterations =  3.5

     total energy              =    -687.28452643 Ry
     Harris-Foulkes estimate   =    -705.15486118 Ry
     estimated scf accuracy    <      22.39240767 Ry

[...]

     iteration # 15     ecut=    40.00 Ry     beta= 0.60
     Davidson diagonalization with overlap
     c_bands:  1 eigenvalues not converged
     ethr =  2.53E-06,  avg # of iterations =  8.2

[...]

     End of self-consistent calculation

     Number of k-points >= 100: set verbosity='high' to print the bands.

     the Fermi energy is    12.9928 ev

!    total energy              =    -702.38355514 Ry
     Harris-Foulkes estimate   =    -702.38355514 Ry
     estimated scf accuracy    <          9.5E-11 Ry

     The total energy is the sum of the following terms:

     one-electron contribution =    -231.29875199 Ry
     hartree contribution      =     137.72963723 Ry
     xc contribution           =     -94.33357322 Ry
     ewald contribution        =    -514.47525212 Ry
     smearing contrib. (-TS)   =      -0.00561505 Ry

     convergence has been achieved in  27 iterations

     Forces acting on atoms (cartesian axes, Ry/au):

     atom    1 type  1   force =    -0.00196407    0.00113396    0.00580264
     atom    2 type  2   force =    -0.00082793    0.00047801   -0.00449497
     atom    3 type  2   force =    -0.00184410    0.00106469   -0.00675909
     atom    4 type  2   force =     0.00184446   -0.00106490    0.00675899
     atom    5 type  2   force =     0.00082770   -0.00047787    0.00449427
     atom    6 type  1   force =     0.00196395   -0.00113389   -0.00580185

     Total force =     0.014842     Total SCF correction =     0.000028

     Computing stress (Cartesian axis) and pressure

          total   stress  (Ry/bohr**3)                   (kbar)     P= -130.51
  -0.00088340  -0.00002554  -0.00002995       -129.95     -3.76     -4.41
  -0.00002554  -0.00091290   0.00001729         -3.76   -134.29      2.54
  -0.00002995   0.00001729  -0.00086529         -4.41      2.54   -127.29

     BFGS Geometry Optimization

     number of scf cycles    =   1
     number of bfgs steps    =   0

     enthalpy new            =    -702.3835551426 Ry

     new trust radius        =       0.1298485349 bohr
     new conv_thr            =            1.0E-10 Ry

     new unit-cell volume =    755.73880 a.u.^3 (   111.98893 Ang^3 )
     density =      5.59421 g/cm^3

CELL_PARAMETERS (alat=  1.88972599)
  -2.981477507   0.004093640   4.867175417
  -1.494283950   2.579988627   4.867175417
  -4.464593109   2.577634219  -4.860336215

ATOMIC_POSITIONS (angstrom)
Nb      -4.469334960   2.580371928   0.007564708
Ti      -5.960041251   3.441031668   2.436200386
Ti      -4.472990661   2.582482547   4.865956743
Ti      -5.962385037   3.442384853   7.306921171
Ti      -8.939927861   5.161470127   4.876341002
Nb      -1.490279526   0.860413348   2.430962833

     NEW-OLD atomic charge density approx. for the potential
     extrapolated charge   69.12797, renormalised to   74.00000

[...]

     enthalpy old            =    -702.3835551426 Ry
     enthalpy new            =    -702.4195644914 Ry

     CASE: enthalpy_new < enthalpy_old

[...]

     Threshold (ethr) on eigenvalues was too large:
     Diagonalizing with lowered threshold

     Davidson diagonalization with overlap
     ethr =  4.54E-08,  avg # of iterations =  2.6

[...]

     Total force =     0.000037     Total SCF correction =     0.000005
     SCF correction compared to forces is large: reduce conv_thr to get better values

[...]

     small trust_radius: resetting bfgs history

[...]

     number of scf cycles    =  33
     number of bfgs steps    =  32

     enthalpy old            =    -702.4414199868 Ry
     enthalpy new            =    -702.4414199893 Ry

     CASE: enthalpy_new < enthalpy_old

     Message from routine bfgs:
     history already reset at previous step: stopping
     small trust_radius: resetting bfgs history

     new trust radius        =       0.0000238391 bohr
     new conv_thr            =            1.3E-12 Ry

     new unit-cell volume =    711.50393 a.u.^3 (   105.43400 Ang^3 )
     density =      5.94201 g/cm^3

[...]

ATOMIC_POSITIONS (angstrom)
Nb      -4.734405779   2.733410626   0.028883311
Ti      -5.948970780   3.434640127   2.384160556
Ti      -4.693425896   2.709750882   4.739484643
Ti      -6.004246803   3.466553753   7.178681916
Ti      -9.318349785   5.379952113   4.811355388
Nb      -1.371794490   0.792005984   2.374750424

     NEW-OLD atomic charge density approx. for the potential
     extrapolated charge   74.00007, renormalised to   74.00000

[...]

     Threshold (ethr) on eigenvalues was too large:
     Diagonalizing with lowered threshold

     Davidson diagonalization with overlap
     ethr =  1.48E-12,  avg # of iterations =  4.2

[...]

     bfgs converged in  34 scf cycles and  33 bfgs steps
     (criteria: energy <  1.0E-10 Ry, force <  1.0E-05Ry/Bohr, cell <  1.0E-03kbar)

     End of BFGS Geometry Optimization

     Final enthalpy =    -702.4414199909 Ry
Begin final coordinates
     new unit-cell volume =    711.50393 a.u.^3 (   105.43400 Ang^3 )
     density =      5.94201 g/cm^3

CELL_PARAMETERS (alat=  1.88972599)
  -2.996363430   0.111922012   4.757266881
  -1.595109026   2.538966028   4.757266881
  -4.569648536   2.638287993  -4.722651525

ATOMIC_POSITIONS (angstrom)
Nb      -4.734405779   2.733410626   0.028883311
Ti      -5.948970780   3.434640127   2.384160556
Ti      -4.693425896   2.709750882   4.739484643
Ti      -6.004246803   3.466553753   7.178681916
Ti      -9.318349785   5.379952113   4.811355388
Nb      -1.371794490   0.792005984   2.374750424
End final coordinates

     A final scf calculation at the relaxed structure.
     The G-vectors are recalculated for the final unit cell
     Results may differ from those at the preceding step.

     bravais-lattice index     =            0
     lattice parameter (alat)  =       1.8897  a.u.
     unit-cell volume          =     711.5039 (a.u.)^3
     number of atoms/cell      =            6
     number of atomic types    =            2
     number of electrons       =        74.00
     number of Kohn-Sham states=           44
     kinetic-energy cutoff     =      40.0000  Ry
     charge density cutoff     =     400.0000  Ry
     convergence threshold     =      1.3E-12
     mixing beta               =       0.6000
     number of iterations used =            8  plain     mixing
     Exchange-correlation      = SLA PW PBE PBE ( 1  4  3  4 0 0)

     celldm(1)=   1.889726  celldm(2)=   0.000000  celldm(3)=   0.000000
     celldm(4)=   0.000000  celldm(5)=   0.000000  celldm(6)=   0.000000

     crystal axes: (cart. coord. in units of alat)
               a(1) = (  -2.996363   0.111922   4.757267 )
               a(2) = (  -1.595109   2.538966   4.757267 )
               a(3) = (  -4.569649   2.638288  -4.722652 )

     reciprocal axes: (cart. coord. in units 2 pi/alat)
               b(1) = ( -0.232768 -0.277635  0.070128 )
               b(2) = (  0.124055  0.340401  0.070128 )
               b(3) = ( -0.109510  0.063226 -0.070462 )

     PseudoPot. # 1 for Nb read from file:
     ./Nb.pbe-nsp-van.UPF
     MD5 check sum: 0a22fc7fb0ba19a08ca5db297a5d2854
     Pseudo is Ultrasoft + core correction, Zval = 13.0
     Generated by new atomic code, or converted to UPF format
     Using radial grid of  887 points,  6 beta functions with:
                l(1) =   0
                l(2) =   0
                l(3) =   1
                l(4) =   1
                l(5) =   2
                l(6) =   2
     Q(r) pseudized with  6 coefficients,  rinner =    1.000   1.000   1.000
                                                       1.000   1.000

     PseudoPot. # 2 for Ti read from file:
     ./Ti.pbe-sp-van_ak.UPF
     MD5 check sum: f98fea3e8887528921fefa5636a534ca
     Pseudo is Ultrasoft, Zval = 12.0
     Generated by new atomic code, or converted to UPF format
     Using radial grid of  851 points,  6 beta functions with:
                l(1) =   0
                l(2) =   0
                l(3) =   1
                l(4) =   1
                l(5) =   2
                l(6) =   2
     Q(r) pseudized with  8 coefficients,  rinner =    1.000   1.000   1.000
                                                       1.000   1.000

     atomic species   valence    mass     pseudopotential
        Nb            13.00    92.90638     Nb( 1.00)
        Ti            12.00    47.86700     Ti( 1.00)

      2 Sym. Ops. (no inversion) found

   Cartesian axes

     site n.     atom                  positions (alat units)
         1           Nb  tau(   1) = (  -4.7344061   2.7334108   0.0288833  )
         2           Ti  tau(   2) = (  -5.9489712   3.4346404   2.3841607  )
         3           Ti  tau(   3) = (  -4.6934263   2.7097511   4.7394850  )
         4           Ti  tau(   4) = (  -6.0042473   3.4665540   7.1786825  )
         5           Ti  tau(   5) = (  -9.3183505   5.3799525   4.8113558  )
         6           Nb  tau(   6) = (  -1.3717946   0.7920060   2.3747506  )

     number of k points=   398  Marzari-Vanderbilt smearing, width (Ry)=  0.0200

     Number of k-points >= 100: set verbosity='high' to print them.

     Initial potential from superposition of free atoms

     starting charge   69.99436, renormalised to   74.00000
     Starting wfcs are   66 randomized atomic wfcs

     Self-consistent Calculation

[...]

     iteration # 13     ecut=    40.00 Ry     beta= 0.60
     Davidson diagonalization with overlap
     c_bands:  1 eigenvalues not converged
     c_bands:  1 eigenvalues not converged
     ethr =  3.59E-05,  avg # of iterations =  4.2

[...]

     total energy              =    -702.43678719 Ry
     Harris-Foulkes estimate   =    -702.43678719 Ry
     estimated scf accuracy    <          1.2E-11 Ry

     iteration # 34     ecut=    40.00 Ry     beta= 0.60
     Davidson diagonalization with overlap
     ethr =  1.00E-13,  avg # of iterations =  1.0

     End of self-consistent calculation

     Number of k-points >= 100: set verbosity='high' to print the bands.

     the Fermi energy is    14.9637 ev

!    total energy              =    -702.43678719 Ry
     Harris-Foulkes estimate   =    -702.43678719 Ry
     estimated scf accuracy    <          9.3E-13 Ry

     The total energy is the sum of the following terms:

     one-electron contribution =    -199.12696337 Ry
     hartree contribution      =     128.02179074 Ry
     xc contribution           =     -94.97402979 Ry
     ewald contribution        =    -536.35849464 Ry
     smearing contrib. (-TS)   =       0.00090987 Ry

     convergence has been achieved in  34 iterations

     Forces acting on atoms (cartesian axes, Ry/au):

     atom    1 type  1   force =    -0.00001125    0.00000650    0.00001570
     atom    2 type  2   force =    -0.00010083    0.00005821   -0.00015061
     atom    3 type  2   force =    -0.00004904    0.00002831    0.00019986
     atom    4 type  2   force =     0.00004909   -0.00002834   -0.00019975
     atom    5 type  2   force =     0.00010086   -0.00005823    0.00015039
     atom    6 type  1   force =     0.00001116   -0.00000645   -0.00001559

     Total force =     0.000399     Total SCF correction =     0.000002

     Computing stress (Cartesian axis) and pressure

          total   stress  (Ry/bohr**3)                   (kbar)     P=   -4.72
  -0.00002431  -0.00001127  -0.00000085         -3.58     -1.66     -0.12
  -0.00001127  -0.00003732   0.00000049         -1.66     -5.49      0.07
  -0.00000085   0.00000049  -0.00003470         -0.12      0.07     -5.10

     General routines

     Parallel routines

       7h

   This run was terminated on:  22:42:18  17Feb2020

   JOB DONE.