     Program PWSCF v.6.3MaX starts on 23Jan2020 at 15:35:45

     R & G space division:  proc/nbgrp/npool/nimage =       4
     Waiting for input...
     Reading input from standard input

     Current dimensions of program PWSCF are:
     Max number of different atomic species (ntypx) = 10
     Max number of k-points (npk) =  40000
     Max angular momentum in pseudopotentials (lmaxx) =  3
     Message from routine iosys:
     minimal I/O required, wf_collect reset to FALSE

     Subspace diagonalization in iterative solution of the eigenvalue problem:
     a serial algorithm will be used

     bravais-lattice index     =            0
     lattice parameter (alat)  =       1.8897  a.u.
     unit-cell volume          =     808.3427 (a.u.)^3
     number of atoms/cell      =            6
     number of atomic types    =            2
     number of electrons       =        76.00
     number of Kohn-Sham states=           46
     kinetic-energy cutoff     =      40.0000  Ry
     charge density cutoff     =     400.0000  Ry
     convergence threshold     =      1.0E-10
     mixing beta               =       0.6000
     number of iterations used =            8  plain     mixing
     Exchange-correlation      = SLA PW PBE PBE ( 1  4  3  4 0 0)
     nstep                     =           50

     celldm(1)=   1.889726  celldm(2)=   0.000000  celldm(3)=   0.000000
     celldm(4)=   0.000000  celldm(5)=   0.000000  celldm(6)=   0.000000

     crystal axes: (cart. coord. in units of alat)
               a(1) = (   6.090008   5.274102   0.000000 )
               a(2) = (  -7.612510  -2.637051   0.000000 )
               a(3) = (   0.000000   0.000000   4.972461 )

     reciprocal axes: (cart. coord. in units 2 pi/alat)
               b(1) = ( -0.109469  0.316010  0.000000 )
               b(2) = ( -0.218938  0.252808  0.000000 )
               b(3) = (  0.000000  0.000000  0.201108 )

     PseudoPot. # 1 for Nb read from file:
     ./Nb.pbe-nsp-van.UPF
     MD5 check sum: 0a22fc7fb0ba19a08ca5db297a5d2854
     Pseudo is Ultrasoft + core correction, Zval = 13.0
     Generated by new atomic code, or converted to UPF format
     Using radial grid of  887 points,  6 beta functions with:
                l(1) =   0
                l(2) =   0
                l(3) =   1
                l(4) =   1
                l(5) =   2
                l(6) =   2
     Q(r) pseudized with  6 coefficients,  rinner =    1.000   1.000   1.000
                                                       1.000   1.000

     PseudoPot. # 2 for Ti read from file:
     ./Ti.pbe-sp-van_ak.UPF
     MD5 check sum: f98fea3e8887528921fefa5636a534ca
     Pseudo is Ultrasoft, Zval = 12.0
     Generated by new atomic code, or converted to UPF format
     Using radial grid of  851 points,  6 beta functions with:
                l(1) =   0
                l(2) =   0
                l(3) =   1
                l(4) =   1
                l(5) =   2
                l(6) =   2
     Q(r) pseudized with  8 coefficients,  rinner =    1.000   1.000   1.000
                                                       1.000   1.000

     atomic species   valence    mass     pseudopotential
        Nb            13.00    92.90638     Nb( 1.00)
        Ti            12.00    47.86700     Ti( 1.00)

      4 Sym. Ops. (no inversion) found

   Cartesian axes

     site n.     atom                  positions (alat units)
         1           Ti  tau(   1) = (  -1.5225021   2.6370512   4.9724614  )
         2           Nb  tau(   2) = (  -1.5225006   0.8790162   2.4862307  )
         3           Nb  tau(   3) = (   1.5225021   2.6370512   4.9724614  )
         4           Ti  tau(   4) = (  -6.0900069  -1.7580350   2.4862307  )
         5           Nb  tau(   5) = (  -3.0450042   0.0000000   4.9724614  )
         6           Nb  tau(   6) = (   3.0450058   3.5160674   2.4862307  )

     number of k points=   248  Marzari-Vanderbilt smearing, width (Ry)=  0.0200

     Number of k-points >= 100: set verbosity='high' to print them.

     Initial potential from superposition of free atoms

     starting charge   73.98898, renormalised to   76.00000
     Starting wfcs are   72 randomized atomic wfcs

     Self-consistent Calculation

     iteration #  1     ecut=    40.00 Ry     beta= 0.60
     Davidson diagonalization with overlap
     ethr =  1.00E-02,  avg # of iterations =  3.0

     total energy              =    -630.32430826 Ry
     Harris-Foulkes estimate   =    -712.34931571 Ry
     estimated scf accuracy    <     100.91270399 Ry

[...]

     End of self-consistent calculation

     Number of k-points >= 100: set verbosity='high' to print the bands.

     the Fermi energy is    14.6599 ev

!    total energy              =    -704.90216282 Ry
     Harris-Foulkes estimate   =    -704.90216282 Ry
     estimated scf accuracy    <          9.4E-11 Ry

     The total energy is the sum of the following terms:

     one-electron contribution =    -177.89099665 Ry
     hartree contribution      =     117.66384844 Ry
     xc contribution           =    -102.16222418 Ry
     ewald contribution        =    -542.50816471 Ry
     smearing contrib. (-TS)   =      -0.00462573 Ry

     convergence has been achieved in  34 iterations

     Forces acting on atoms (cartesian axes, Ry/au):

     atom    1 type  2   force =     0.00066519    0.00038405    0.00000000
     atom    2 type  1   force =     0.00451294    0.00260555    0.00000000
     atom    3 type  1   force =    -0.00449996   -0.00259805    0.00000000
     atom    4 type  2   force =    -0.00068511   -0.00039555    0.00000000
     atom    5 type  1   force =     0.00411917    0.00237821    0.00000000
     atom    6 type  1   force =    -0.00411223   -0.00237420    0.00000000

     Total force =     0.010027     Total SCF correction =     0.000031

     Computing stress (Cartesian axis) and pressure

          total   stress  (Ry/bohr**3)                   (kbar)     P= -118.29
  -0.00086820   0.00003853   0.00000000       -127.72      5.67      0.00
   0.00003853  -0.00091269   0.00000000          5.67   -134.26      0.00
   0.00000000   0.00000000  -0.00063151          0.00      0.00    -92.90

     BFGS Geometry Optimization

     number of scf cycles    =   1
     number of bfgs steps    =   0

     enthalpy new            =    -704.9021628182 Ry

     new trust radius        =       0.1298612134 bohr
     new conv_thr            =            1.0E-10 Ry

     new unit-cell volume =    760.55285 a.u.^3 (   112.70230 Ang^3 )
     density =      6.88601 g/cm^3

CELL_PARAMETERS (alat=  1.88972599)
   5.962903949   5.159627101   0.000000000
  -7.449819797  -2.584213120   0.000000000
   0.000000000   0.000000000   4.893956677

ATOMIC_POSITIONS (angstrom)
Ti      -1.486571290   2.575612912   4.893956677
Nb      -1.486270115   0.858842424   2.446978338
Nb       1.489665118   2.577001273   4.893956677
Ti      -5.959870545  -1.723992174   2.446978338
Nb      -2.976778209  -0.001701170   4.893956677
Nb       2.980170083   3.437543060   2.446978338

     NEW-OLD atomic charge density approx. for the potential

     Check: negative/imaginary core charge=   -0.000001    0.000000
     extrapolated charge   71.35085, renormalised to   76.00000

[...]

     iteration #  1     ecut=    40.00 Ry     beta= 0.60
     Davidson diagonalization with overlap
     c_bands:  1 eigenvalues not converged
     c_bands:  1 eigenvalues not converged
     c_bands:  1 eigenvalues not converged
     c_bands:  1 eigenvalues not converged
     c_bands:  1 eigenvalues not converged
     c_bands:  1 eigenvalues not converged
     c_bands:  1 eigenvalues not converged
     c_bands:  1 eigenvalues not converged
     c_bands:  1 eigenvalues not converged
     c_bands:  1 eigenvalues not converged
     c_bands:  1 eigenvalues not converged
     c_bands:  1 eigenvalues not converged
     c_bands:  1 eigenvalues not converged
     c_bands:  1 eigenvalues not converged
     c_bands:  1 eigenvalues not converged
     c_bands:  1 eigenvalues not converged
     c_bands:  1 eigenvalues not converged
     c_bands:  1 eigenvalues not converged
     c_bands:  1 eigenvalues not converged
     c_bands:  1 eigenvalues not converged
     c_bands:  1 eigenvalues not converged
     c_bands:  1 eigenvalues not converged
     c_bands:  1 eigenvalues not converged
     c_bands:  1 eigenvalues not converged
     c_bands:  1 eigenvalues not converged
     c_bands:  1 eigenvalues not converged
     c_bands:  1 eigenvalues not converged
     c_bands:  2 eigenvalues not converged
     c_bands:  1 eigenvalues not converged
     c_bands:  1 eigenvalues not converged
     c_bands:  1 eigenvalues not converged
     c_bands:  1 eigenvalues not converged
     c_bands:  1 eigenvalues not converged
     c_bands:  1 eigenvalues not converged
     c_bands:  2 eigenvalues not converged
     c_bands:  1 eigenvalues not converged
     c_bands:  2 eigenvalues not converged
     c_bands:  1 eigenvalues not converged
     c_bands:  1 eigenvalues not converged
     c_bands:  1 eigenvalues not converged
     c_bands:  1 eigenvalues not converged
     c_bands:  1 eigenvalues not converged
     c_bands:  2 eigenvalues not converged
     c_bands:  1 eigenvalues not converged
     c_bands:  1 eigenvalues not converged
     c_bands:  1 eigenvalues not converged
     c_bands:  1 eigenvalues not converged
     c_bands:  1 eigenvalues not converged
     c_bands:  1 eigenvalues not converged
     c_bands:  1 eigenvalues not converged
     c_bands:  1 eigenvalues not converged
     c_bands:  1 eigenvalues not converged
     c_bands:  1 eigenvalues not converged
     c_bands:  1 eigenvalues not converged
     c_bands:  1 eigenvalues not converged
     c_bands:  1 eigenvalues not converged
     c_bands:  1 eigenvalues not converged
     c_bands:  1 eigenvalues not converged
     c_bands:  1 eigenvalues not converged
     c_bands:  1 eigenvalues not converged
     c_bands:  2 eigenvalues not converged
     c_bands:  1 eigenvalues not converged
     c_bands:  4 eigenvalues not converged
     c_bands:  2 eigenvalues not converged
     c_bands:  1 eigenvalues not converged
     c_bands:  2 eigenvalues not converged
     c_bands:  1 eigenvalues not converged
     c_bands:  2 eigenvalues not converged
     c_bands:  1 eigenvalues not converged
     ethr =  1.00E-06,  avg # of iterations = 15.8

[...]

     enthalpy old            =    -704.9021628182 Ry
     enthalpy new            =    -704.9309778473 Ry

     CASE: enthalpy_new < enthalpy_old

[...]

     WARNING: bfgs curvature condition failed, Theta= 0.864
     new trust radius        =       0.0442605682 bohr
     new conv_thr            =            1.0E-10 Ry

[...]

     NEW-OLD atomic charge density approx. for the potential
     extrapolated charge   76.21897, renormalised to   76.00000

[...]

     WARNING: info= 27 for Hessian

[...]

     CASE: enthalpy_new > enthalpy_old

[...]

     WARNING: info= 22 for Hessian

     WARNING: bfgs curvature condition failed, Theta= 0.812
     new trust radius        =       0.0036489656 bohr
     new conv_thr            =            1.0E-10 Ry

[...]

     CASE: enthalpy_new > enthalpy_old

     new trust radius        =       0.0000644536 bohr

     trust_radius < trust_radius_min

     resetting bfgs history

     new conv_thr            =            1.0E-10 Ry

[...]

     NEW-OLD atomic charge density approx. for the potential

     Check: negative/imaginary core charge=   -0.000001    0.000000
     extrapolated charge   74.61122, renormalised to   76.00000

[...]

     Threshold (ethr) on eigenvalues was too large:
     Diagonalizing with lowered threshold

     Davidson diagonalization with overlap
     ethr =  7.47E-09,  avg # of iterations =  2.1

[...]

     Total force =     0.000026     Total SCF correction =     0.000009
     SCF correction compared to forces is large: reduce conv_thr to get better values

[...]

     small trust_radius: resetting bfgs history

[...]

     number of scf cycles    =  40
     number of bfgs steps    =  35

     enthalpy old            =    -704.9719363280 Ry
     enthalpy new            =    -704.9719363285 Ry

     CASE: enthalpy_new < enthalpy_old

     Message from routine bfgs:
     history already reset at previous step: stopping
     small trust_radius: resetting bfgs history

     new trust radius        =       0.0000087446 bohr
     new conv_thr            =            1.0E-12 Ry

     new unit-cell volume =    728.64814 a.u.^3 (   107.97451 Ang^3 )
     density =      7.18752 g/cm^3

[...]

ATOMIC_POSITIONS (angstrom)
Ti      -1.176795616   2.454406078   4.805146477
Nb      -1.587149097   0.650572126   2.402573238
Nb       1.823537475   2.619734608   4.805146477
Ti      -6.435546341  -2.148651498   2.402573238
Nb      -2.882265978  -0.097162455   4.805146477
Nb       3.118655320   3.367469746   2.402573238

     NEW-OLD atomic charge density approx. for the potential
     extrapolated charge   75.99988, renormalised to   76.00000

[...]

     Threshold (ethr) on eigenvalues was too large:
     Diagonalizing with lowered threshold

     Davidson diagonalization with overlap
     ethr =  9.08E-13,  avg # of iterations =  3.4

[...]

     Total force =     0.000008     Total SCF correction =     0.000004
     SCF correction compared to forces is large: reduce conv_thr to get better values

[...]

     bfgs converged in  41 scf cycles and  36 bfgs steps
     (criteria: energy <  1.0E-10 Ry, force <  1.0E-05Ry/Bohr, cell <  1.0E-03kbar)

     End of BFGS Geometry Optimization

     Final enthalpy =    -704.9719363287 Ry
Begin final coordinates
     new unit-cell volume =    728.64814 a.u.^3 (   107.97451 Ang^3 )
     density =      7.18752 g/cm^3

CELL_PARAMETERS (alat=  1.88972599)
   6.491839876   5.314980432   0.000000000
  -7.848827705  -2.964608370   0.000000000
   0.000000000   0.000000000   4.805146477

ATOMIC_POSITIONS (angstrom)
Ti      -1.176795616   2.454406078   4.805146477
Nb      -1.587149097   0.650572126   2.402573238
Nb       1.823537475   2.619734608   4.805146477
Ti      -6.435546341  -2.148651498   2.402573238
Nb      -2.882265978  -0.097162455   4.805146477
Nb       3.118655320   3.367469746   2.402573238
End final coordinates

     A final scf calculation at the relaxed structure.
     The G-vectors are recalculated for the final unit cell
     Results may differ from those at the preceding step.

     bravais-lattice index     =            0
     lattice parameter (alat)  =       1.8897  a.u.
     unit-cell volume          =     728.6481 (a.u.)^3
     number of atoms/cell      =            6
     number of atomic types    =            2
     number of electrons       =        76.00
     number of Kohn-Sham states=           46
     kinetic-energy cutoff     =      40.0000  Ry
     charge density cutoff     =     400.0000  Ry
     convergence threshold     =      1.0E-12
     mixing beta               =       0.6000
     number of iterations used =            8  plain     mixing
     Exchange-correlation      = SLA PW PBE PBE ( 1  4  3  4 0 0)

     celldm(1)=   1.889726  celldm(2)=   0.000000  celldm(3)=   0.000000
     celldm(4)=   0.000000  celldm(5)=   0.000000  celldm(6)=   0.000000

     crystal axes: (cart. coord. in units of alat)
               a(1) = (   6.491840   5.314980   0.000000 )
               a(2) = (  -7.848828  -2.964608   0.000000 )
               a(3) = (   0.000000   0.000000   4.805146 )

     reciprocal axes: (cart. coord. in units 2 pi/alat)
               b(1) = ( -0.131933  0.349293  0.000000 )
               b(2) = ( -0.236530  0.288904  0.000000 )
               b(3) = (  0.000000  0.000000  0.208110 )

     PseudoPot. # 1 for Nb read from file:
     ./Nb.pbe-nsp-van.UPF
     MD5 check sum: 0a22fc7fb0ba19a08ca5db297a5d2854
     Pseudo is Ultrasoft + core correction, Zval = 13.0
     Generated by new atomic code, or converted to UPF format
     Using radial grid of  887 points,  6 beta functions with:
                l(1) =   0
                l(2) =   0
                l(3) =   1
                l(4) =   1
                l(5) =   2
                l(6) =   2
     Q(r) pseudized with  6 coefficients,  rinner =    1.000   1.000   1.000
                                                       1.000   1.000

     PseudoPot. # 2 for Ti read from file:
     ./Ti.pbe-sp-van_ak.UPF
     MD5 check sum: f98fea3e8887528921fefa5636a534ca
     Pseudo is Ultrasoft, Zval = 12.0
     Generated by new atomic code, or converted to UPF format
     Using radial grid of  851 points,  6 beta functions with:
                l(1) =   0
                l(2) =   0
                l(3) =   1
                l(4) =   1
                l(5) =   2
                l(6) =   2
     Q(r) pseudized with  8 coefficients,  rinner =    1.000   1.000   1.000
                                                       1.000   1.000

     atomic species   valence    mass     pseudopotential
        Nb            13.00    92.90638     Nb( 1.00)
        Ti            12.00    47.86700     Ti( 1.00)

      4 Sym. Ops. (no inversion) found

   Cartesian axes

     site n.     atom                  positions (alat units)
         1           Ti  tau(   1) = (  -1.1767957   2.4544063   4.8051468  )
         2           Nb  tau(   2) = (  -1.5871492   0.6505722   2.4025734  )
         3           Nb  tau(   3) = (   1.8235376   2.6197348   4.8051468  )
         4           Ti  tau(   4) = (  -6.4355468  -2.1486517   2.4025734  )
         5           Nb  tau(   5) = (  -2.8822662  -0.0971625   4.8051468  )
         6           Nb  tau(   6) = (   3.1186556   3.3674700   2.4025734  )

     number of k points=   248  Marzari-Vanderbilt smearing, width (Ry)=  0.0200

     Number of k-points >= 100: set verbosity='high' to print them.

     Initial potential from superposition of free atoms

     starting charge   73.98898, renormalised to   76.00000
     Starting wfcs are   72 randomized atomic wfcs

     Self-consistent Calculation

[...]

     iteration # 22     ecut=    40.00 Ry     beta= 0.60
     Davidson diagonalization with overlap
     c_bands:  1 eigenvalues not converged
     ethr =  2.92E-06,  avg # of iterations =  5.9

[...]

     total energy              =    -704.96986338 Ry
     Harris-Foulkes estimate   =    -704.96986338 Ry
     estimated scf accuracy    <          7.2E-12 Ry

     iteration # 35     ecut=    40.00 Ry     beta= 0.60
     Davidson diagonalization with overlap
     ethr =  1.00E-13,  avg # of iterations =  1.0

     End of self-consistent calculation

     Number of k-points >= 100: set verbosity='high' to print the bands.

     the Fermi energy is    16.3747 ev

!    total energy              =    -704.96986338 Ry
     Harris-Foulkes estimate   =    -704.96986338 Ry
     estimated scf accuracy    <          9.0E-14 Ry

     The total energy is the sum of the following terms:

     one-electron contribution =    -151.43283709 Ry
     hartree contribution      =     110.20927203 Ry
     xc contribution           =    -102.78547011 Ry
     ewald contribution        =    -560.96021768 Ry
     smearing contrib. (-TS)   =      -0.00061053 Ry

     convergence has been achieved in  35 iterations

     Forces acting on atoms (cartesian axes, Ry/au):

     atom    1 type  2   force =    -0.00007076   -0.00004086    0.00000000
     atom    2 type  1   force =     0.00000473    0.00000273    0.00000000
     atom    3 type  1   force =     0.00000272    0.00000157    0.00000000
     atom    4 type  2   force =     0.00005591    0.00003228    0.00000000
     atom    5 type  1   force =     0.00000214    0.00000124    0.00000000
     atom    6 type  1   force =     0.00000526    0.00000304    0.00000000

     Total force =     0.000105     Total SCF correction =     0.000001

     Computing stress (Cartesian axis) and pressure

          total   stress  (Ry/bohr**3)                   (kbar)     P=   -1.16
  -0.00000115   0.00001051   0.00000000         -0.17      1.55      0.00
   0.00001051  -0.00001329   0.00000000          1.55     -1.95      0.00
   0.00000000   0.00000000  -0.00000923          0.00      0.00     -1.36

     General routines

     Parallel routines

       8h

   This run was terminated on:   1:43:56  24Jan2020

   JOB DONE.