     Program PWSCF v.6.0 (svn rev. 13079) starts on  9May2018 at 12: 3:19

     Current dimensions of program PWSCF are:
     Max number of different atomic species (ntypx) = 10
     Max number of k-points (npk) =  40000
     Max angular momentum in pseudopotentials (lmaxx) =  3

     Subspace diagonalization in iterative solution of the eigenvalue problem:
     a serial algorithm will be used

     bravais-lattice index     =            0
     lattice parameter (alat)  =       1.8897  a.u.
     unit-cell volume          =     808.3427 (a.u.)^3
     number of atoms/cell      =            6
     number of atomic types    =            2
     number of electrons       =        76.00
     number of Kohn-Sham states=           46
     kinetic-energy cutoff     =      40.0000  Ry
     charge density cutoff     =     400.0000  Ry
     convergence threshold     =      1.0E-10
     mixing beta               =       0.6000
     number of iterations used =            8  plain     mixing
     Exchange-correlation      = SLA  PW   PBE  PBE ( 1  4  3  4 0 0)
     nstep                     =           50

     celldm(1)=   1.889726  celldm(2)=   0.000000  celldm(3)=   0.000000
     celldm(4)=   0.000000  celldm(5)=   0.000000  celldm(6)=   0.000000

     crystal axes: (cart. coord. in units of alat)
               a(1) = (   3.045004   0.000000   4.972461 )
               a(2) = (  -1.522502   2.637051   4.972461 )
               a(3) = (  -1.522502  -2.637051   4.972461 )

     reciprocal axes: (cart. coord. in units 2 pi/alat)
               b(1) = (  0.218938  0.000000  0.067036 )
               b(2) = ( -0.109469  0.189606  0.067036 )
               b(3) = ( -0.109469 -0.189606  0.067036 )

     PseudoPot. # 1 for Nb read from file:
     ./Nb.pbe-nsp-van.UPF
     MD5 check sum: 0a22fc7fb0ba19a08ca5db297a5d2854
     Pseudo is Ultrasoft + core correction, Zval = 13.0
     Generated by new atomic code, or converted to UPF format
     Using radial grid of  887 points,  6 beta functions with:
                l(1) =   0
                l(2) =   0
                l(3) =   1
                l(4) =   1
                l(5) =   2
                l(6) =   2
     Q(r) pseudized with  6 coefficients,  rinner =    1.000   1.000   1.000
                                                       1.000   1.000

     PseudoPot. # 2 for Ti read from file:
     ./Ti.pbe-sp-van_ak.UPF
     MD5 check sum: f98fea3e8887528921fefa5636a534ca
     Pseudo is Ultrasoft, Zval = 12.0
     Generated by new atomic code, or converted to UPF format
     Using radial grid of  851 points,  6 beta functions with:
                l(1) =   0
                l(2) =   0
                l(3) =   1
                l(4) =   1
                l(5) =   2
                l(6) =   2
     Q(r) pseudized with  8 coefficients,  rinner =    1.000   1.000   1.000
                                                       1.000   1.000

     atomic species   valence    mass     pseudopotential
        Nb            13.00    92.90638     Nb( 1.00)
        Ti            12.00    47.86700     Ti( 1.00)

      2 Sym. Ops. (no inversion) found ( 1 have fractional translation)

   Cartesian axes

     site n.     atom                  positions (alat units)
         1           Ti  tau(   1) = (   0.0000000   0.0000000   9.9449228  )
         2           Ti  tau(   2) = (   0.0000015  -1.7580350   7.4586921  )
         3           Nb  tau(   3) = (   0.0000000   0.0000000  14.9173841  )
         4           Nb  tau(   4) = (   1.5225036   0.8790162   7.4586921  )
         5           Nb  tau(   5) = (   0.0000000   0.0000000   4.9724614  )
         6           Nb  tau(   6) = (  -1.5225006   0.8790162   7.4586921  )

     number of k points=   476  Marzari-Vanderbilt smearing, width (Ry)=  0.0200

     Number of k-points >= 100: set verbosity='high' to print them.

     Initial potential from superposition of free atoms

     starting charge   73.98898, renormalised to   76.00000
     Starting wfc are   72 randomized atomic wfcs

     Self-consistent Calculation

     iteration #  1     ecut=    40.00 Ry     beta=0.60
     Davidson diagonalization with overlap
     ethr =  1.00E-02,  avg # of iterations =  2.1

     total energy              =    -681.12668784 Ry
     Harris-Foulkes estimate   =    -707.55330902 Ry
     estimated scf accuracy    <      33.30974269 Ry

[...]

     End of self-consistent calculation

     Number of k-points >= 100: set verbosity='high' to print the bands.

     the Fermi energy is    14.6654 ev

!    total energy              =    -704.90213167 Ry
     Harris-Foulkes estimate   =    -704.90213167 Ry
     estimated scf accuracy    <          3.2E-11 Ry

     The total energy is the sum of the following terms:

     one-electron contribution =    -177.51397252 Ry
     hartree contribution      =     117.49128060 Ry
     xc contribution           =    -102.16126682 Ry
     ewald contribution        =    -542.71355037 Ry
     smearing contrib. (-TS)   =      -0.00462256 Ry

     convergence has been achieved in  31 iterations

     Forces acting on atoms (Ry/au):

     atom    1 type  2   force =    -0.00101049   -0.00058341    0.00000000
     atom    2 type  2   force =     0.00101052    0.00058343    0.00000000
     atom    3 type  1   force =    -0.00053515    0.00162495    0.00227562
     atom    4 type  1   force =    -0.00113963    0.00127582    0.00227556
     atom    5 type  1   force =     0.00113967   -0.00127593   -0.00227562
     atom    6 type  1   force =     0.00053508   -0.00162485   -0.00227556

     Total force =     0.005928     Total SCF correction =     0.000004

     entering subroutine stress ...

          total   stress  (Ry/bohr**3)                   (kbar)     P= -119.53
  -0.00090914  -0.00000184   0.00000502       -133.74     -0.27      0.74
  -0.00000184  -0.00090702  -0.00000870         -0.27   -133.43     -1.28
   0.00000502  -0.00000870  -0.00062151          0.74     -1.28    -91.43

     BFGS Geometry Optimization

     number of scf cycles    =   1
     number of bfgs steps    =   0

     enthalpy new            =    -704.9021316698 Ry

     new trust radius        =       0.1292431848 bohr
     new conv_thr            =            1.0E-10 Ry

     new unit-cell volume =    760.06112 a.u.^3 (   112.62944 Ang^3 )

CELL_PARAMETERS (alat=  1.88972599)
   2.976419964  -0.001221786   4.895582091
  -1.487394307   2.576242696   4.894434642
  -1.487151884  -2.578266380   4.895582091

ATOMIC_POSITIONS (angstrom)
Ti       0.000726620  -0.002465348   9.790399215
Ti       0.001541760  -1.719491576   7.343181895
Nb       0.001597131  -0.002405329  14.686784094
Nb       1.488206419   0.858050860   7.343984652
Nb       0.001213853  -0.001741473   4.894014337
Nb      -1.486723113   0.856691144   7.341231689

     NEW-OLD atomic charge density approx. for the potential

     Check: negative/imaginary core charge=   -0.000001    0.000000
     extrapolated charge   71.29997, renormalised to   76.00000

[...]

     iteration #  1     ecut=    40.00 Ry     beta=0.60
     Davidson diagonalization with overlap
     c_bands:  1 eigenvalues not converged
     c_bands:  2 eigenvalues not converged
     c_bands:  2 eigenvalues not converged
     c_bands:  1 eigenvalues not converged
     c_bands:  2 eigenvalues not converged
     c_bands:  2 eigenvalues not converged
     c_bands:  1 eigenvalues not converged
     c_bands:  1 eigenvalues not converged
     c_bands:  1 eigenvalues not converged
     c_bands:  1 eigenvalues not converged
     c_bands:  1 eigenvalues not converged
     c_bands:  1 eigenvalues not converged
     c_bands:  1 eigenvalues not converged
     c_bands:  1 eigenvalues not converged
     c_bands:  1 eigenvalues not converged
     c_bands:  1 eigenvalues not converged
     c_bands:  1 eigenvalues not converged
     c_bands:  1 eigenvalues not converged
     c_bands:  2 eigenvalues not converged
     c_bands:  1 eigenvalues not converged
     c_bands:  2 eigenvalues not converged
     c_bands:  2 eigenvalues not converged
     c_bands:  2 eigenvalues not converged
     c_bands:  1 eigenvalues not converged
     c_bands:  1 eigenvalues not converged
     c_bands:  2 eigenvalues not converged
     c_bands:  2 eigenvalues not converged
     c_bands:  1 eigenvalues not converged
     c_bands:  2 eigenvalues not converged
     c_bands:  1 eigenvalues not converged
     c_bands:  2 eigenvalues not converged
     c_bands:  1 eigenvalues not converged
     c_bands:  1 eigenvalues not converged
     c_bands:  1 eigenvalues not converged
     c_bands:  1 eigenvalues not converged
     c_bands:  2 eigenvalues not converged
     c_bands:  1 eigenvalues not converged
     c_bands:  1 eigenvalues not converged
     c_bands:  1 eigenvalues not converged
     c_bands:  2 eigenvalues not converged
     c_bands:  1 eigenvalues not converged
     c_bands:  1 eigenvalues not converged
     c_bands:  1 eigenvalues not converged
     c_bands:  2 eigenvalues not converged
     c_bands:  1 eigenvalues not converged
     c_bands:  1 eigenvalues not converged
     c_bands:  1 eigenvalues not converged
     c_bands:  2 eigenvalues not converged
     c_bands:  2 eigenvalues not converged
     c_bands:  2 eigenvalues not converged
     c_bands:  2 eigenvalues not converged
     c_bands:  2 eigenvalues not converged
     c_bands:  1 eigenvalues not converged
     c_bands:  1 eigenvalues not converged
     c_bands:  1 eigenvalues not converged
     c_bands:  2 eigenvalues not converged
     c_bands:  1 eigenvalues not converged
     c_bands:  2 eigenvalues not converged
     c_bands:  2 eigenvalues not converged
     c_bands:  2 eigenvalues not converged
[...]
     c_bands:  1 eigenvalues not converged
     c_bands:  1 eigenvalues not converged
     c_bands:  1 eigenvalues not converged
     c_bands:  1 eigenvalues not converged
     c_bands:  1 eigenvalues not converged
     c_bands:  1 eigenvalues not converged
     c_bands:  1 eigenvalues not converged
     c_bands:  1 eigenvalues not converged
     c_bands:  1 eigenvalues not converged
     c_bands:  1 eigenvalues not converged
     c_bands:  1 eigenvalues not converged
     c_bands:  1 eigenvalues not converged
     c_bands:  1 eigenvalues not converged
     c_bands:  1 eigenvalues not converged
     c_bands:  1 eigenvalues not converged
     ethr =  1.00E-06,  avg # of iterations = 16.6

[...]

     enthalpy old            =    -704.9021316698 Ry
     enthalpy new            =    -704.9315800434 Ry

     CASE: enthalpy_new < enthalpy_old

[...]

     WARNING: bfgs curvature condition failed, Theta= 0.906
     new trust radius        =       0.0479840400 bohr
     new conv_thr            =            1.0E-10 Ry

[...]

     NEW-OLD atomic charge density approx. for the potential
     extrapolated charge   76.09625, renormalised to   76.00000

[...]

     Threshold (ethr) on eigenvalues was too large:
     Diagonalizing with lowered threshold

     Davidson diagonalization with overlap
     ethr =  4.45E-08,  avg # of iterations =  2.5

[...]

     NEW-OLD atomic charge density approx. for the potential
     extrapolated charge   75.90637, renormalised to   76.00000

[...]

     WARNING: bfgs curvature condition failed, Theta= 0.411
     new trust radius        =       0.0630783227 bohr
     new conv_thr            =            1.0E-10 Ry

[...]

     CASE: enthalpy_new > enthalpy_old

[...]

     Self-consistent Calculation

     iteration #  1     ecut=    40.00 Ry     beta=0.60
     Davidson diagonalization with overlap
     c_bands:  1 eigenvalues not converged
     c_bands:  1 eigenvalues not converged
     c_bands:  1 eigenvalues not converged
     c_bands:  1 eigenvalues not converged
     c_bands:  1 eigenvalues not converged
     c_bands:  1 eigenvalues not converged
     c_bands:  1 eigenvalues not converged
     c_bands:  1 eigenvalues not converged
     ethr =  1.00E-06,  avg # of iterations = 11.6

[...]

     total energy              =    -704.96985113 Ry
     Harris-Foulkes estimate   =    -704.96985113 Ry
     estimated scf accuracy    <          2.3E-09 Ry

     iteration # 14     ecut=    40.00 Ry     beta=0.60
     Davidson diagonalization with overlap
     ethr =  3.03E-12,  avg # of iterations =  2.8

     End of self-consistent calculation

     Number of k-points >= 100: set verbosity='high' to print the bands.

     the Fermi energy is    16.4954 ev

!    total energy              =    -704.96985113 Ry
     Harris-Foulkes estimate   =    -704.96985113 Ry
     estimated scf accuracy    <          1.3E-11 Ry

     The total energy is the sum of the following terms:

     one-electron contribution =    -150.74407554 Ry
     hartree contribution      =     110.37949722 Ry
     xc contribution           =    -102.85767619 Ry
     ewald contribution        =    -561.74749812 Ry
     smearing contrib. (-TS)   =      -0.00009850 Ry

     convergence has been achieved in  14 iterations

     Forces acting on atoms (Ry/au):

     atom    1 type  2   force =    -0.00496124   -0.00286437    0.00000000
     atom    2 type  2   force =     0.00495692    0.00286188   -0.00000000
     atom    3 type  1   force =     0.00162686    0.01045812   -0.01142631
     atom    4 type  1   force =    -0.00982741    0.00375063   -0.01145943
     atom    5 type  1   force =     0.00987043   -0.00382016    0.01142631
     atom    6 type  1   force =    -0.00166556   -0.01038610    0.01145943

     Total force =     0.032166     Total SCF correction =     0.000010

     entering subroutine stress ...

          total   stress  (Ry/bohr**3)                   (kbar)     P=   10.93
   0.00010864   0.00006191  -0.00001527         15.98      9.11     -2.25
   0.00006191   0.00003714   0.00002645          9.11      5.46      3.89
  -0.00001527   0.00002645   0.00007708         -2.25      3.89     11.34

     number of scf cycles    =  50
     number of bfgs steps    =  48

     enthalpy old            =    -704.9694157927 Ry
     enthalpy new            =    -704.9698511292 Ry

     CASE: enthalpy_new < enthalpy_old

     new trust radius        =       0.0529558955 bohr
     new conv_thr            =            1.0E-10 Ry

     new unit-cell volume =    724.07003 a.u.^3 (   107.29611 Ang^3 )

CELL_PARAMETERS (alat=  1.88972599)
   3.200357130  -0.536529703   5.357829962
  -1.100640150   1.906364967   4.667040097
  -1.135530123  -3.039855563   5.357829934

ATOMIC_POSITIONS (angstrom)
Ti       0.807087024  -1.018490656  10.255133332
Ti       0.306137810  -2.578625408   7.921613503
Nb       1.080596723  -1.607122275  15.463494871
Nb       1.814597976  -0.069696145   7.772250488
Nb       0.434071842  -0.487308551   5.046771792
Nb      -1.067833075  -0.083830458   7.380186684

     NEW-OLD atomic charge density approx. for the potential

     Check: negative/imaginary core charge=   -0.000001    0.000000
     extrapolated charge   76.07163, renormalised to   76.00000

     General routines

     Parallel routines

   This run was terminated on:   7:27:23  11May2018

   JOB DONE.
Primary job  terminated normally, but 1 process returned
a non-zero exit code.. Per user-direction, the job has been aborted.
mpirun detected that one or more processes exited with non-zero status, thus causing
the job to be terminated. The first process to do so was:

  Process name: [[33263,1],0]
  Exit code:    3