     Program PWSCF v.6.3MaX starts on 27Jan2020 at  9:10: 0

     R & G space division:  proc/nbgrp/npool/nimage =       4
     Waiting for input...
     Reading input from standard input

     Current dimensions of program PWSCF are:
     Max number of different atomic species (ntypx) = 10
     Max number of k-points (npk) =  40000
     Max angular momentum in pseudopotentials (lmaxx) =  3
     Message from routine iosys:
     minimal I/O required, wf_collect reset to FALSE

     Subspace diagonalization in iterative solution of the eigenvalue problem:
     a serial algorithm will be used

     bravais-lattice index     =            0
     lattice parameter (alat)  =       1.8897  a.u.
     unit-cell volume          =     808.3427 (a.u.)^3
     number of atoms/cell      =            6
     number of atomic types    =            2
     number of electrons       =        77.00
     number of Kohn-Sham states=           47
     kinetic-energy cutoff     =      40.0000  Ry
     charge density cutoff     =     400.0000  Ry
     convergence threshold     =      1.0E-10
     mixing beta               =       0.6000
     number of iterations used =            8  plain     mixing
     Exchange-correlation      = SLA PW PBE PBE ( 1  4  3  4 0 0)
     nstep                     =           50

     celldm(1)=   1.889726  celldm(2)=   0.000000  celldm(3)=   0.000000
     celldm(4)=   0.000000  celldm(5)=   0.000000  celldm(6)=   0.000000

     crystal axes: (cart. coord. in units of alat)
               a(1) = (   4.567506  -2.637051   0.000000 )
               a(2) = (  -4.567506  -2.637051   0.000000 )
               a(3) = (   0.000000   0.000000  -4.972461 )

     reciprocal axes: (cart. coord. in units 2 pi/alat)
               b(1) = (  0.109469 -0.189606  0.000000 )
               b(2) = ( -0.109469 -0.189606  0.000000 )
               b(3) = (  0.000000  0.000000 -0.201108 )

     PseudoPot. # 1 for Nb read from file:
     ./Nb.pbe-nsp-van.UPF
     MD5 check sum: 0a22fc7fb0ba19a08ca5db297a5d2854
     Pseudo is Ultrasoft + core correction, Zval = 13.0
     Generated by new atomic code, or converted to UPF format
     Using radial grid of  887 points,  6 beta functions with:
                l(1) =   0
                l(2) =   0
                l(3) =   1
                l(4) =   1
                l(5) =   2
                l(6) =   2
     Q(r) pseudized with  6 coefficients,  rinner =    1.000   1.000   1.000
                                                       1.000   1.000

     PseudoPot. # 2 for Ti read from file:
     ./Ti.pbe-sp-van_ak.UPF
     MD5 check sum: f98fea3e8887528921fefa5636a534ca
     Pseudo is Ultrasoft, Zval = 12.0
     Generated by new atomic code, or converted to UPF format
     Using radial grid of  851 points,  6 beta functions with:
                l(1) =   0
                l(2) =   0
                l(3) =   1
                l(4) =   1
                l(5) =   2
                l(6) =   2
     Q(r) pseudized with  8 coefficients,  rinner =    1.000   1.000   1.000
                                                       1.000   1.000

     atomic species   valence    mass     pseudopotential
        Nb            13.00    92.90638     Nb( 1.00)
        Ti            12.00    47.86700     Ti( 1.00)

     12 Sym. Ops. (no inversion) found

   Cartesian axes

     site n.     atom                  positions (alat units)
         1           Ti  tau(   1) = (   0.0000000  -5.2741024  -4.9724614  )
         2           Nb  tau(   2) = (   0.0000015  -1.7580350  -2.4862307  )
         3           Nb  tau(   3) = (  -1.5225021  -2.6370512  -4.9724614  )
         4           Nb  tau(   4) = (  -1.5225006  -4.3950862  -2.4862307  )
         5           Nb  tau(   5) = (   1.5225021  -2.6370512  -4.9724614  )
         6           Nb  tau(   6) = (   1.5225036  -4.3950862  -2.4862307  )

     number of k points=   112  Marzari-Vanderbilt smearing, width (Ry)=  0.0200

     Number of k-points >= 100: set verbosity='high' to print them.

     Check: negative/imaginary core charge=   -0.000001    0.000000

     Initial potential from superposition of free atoms

     starting charge   75.98629, renormalised to   77.00000
     Starting wfcs are   75 randomized atomic wfcs

     Self-consistent Calculation

     iteration #  1     ecut=    40.00 Ry     beta= 0.60
     Davidson diagonalization with overlap
     ethr =  1.00E-02,  avg # of iterations =  2.0

     total energy              =    -686.72910777 Ry
     Harris-Foulkes estimate   =    -708.32173569 Ry
     estimated scf accuracy    <      27.06092443 Ry

[...]

     End of self-consistent calculation

     Number of k-points >= 100: set verbosity='high' to print the bands.

     the Fermi energy is    15.4868 ev

!    total energy              =    -706.16263761 Ry
     Harris-Foulkes estimate   =    -706.16263761 Ry
     estimated scf accuracy    <          3.2E-12 Ry

     The total energy is the sum of the following terms:

     one-electron contribution =    -150.57138163 Ry
     hartree contribution      =     107.42869618 Ry
     xc contribution           =    -106.08392311 Ry
     ewald contribution        =    -556.93447678 Ry
     smearing contrib. (-TS)   =      -0.00155227 Ry

     convergence has been achieved in  26 iterations

     Forces acting on atoms (cartesian axes, Ry/au):

     atom    1 type  2   force =     0.00000000    0.00000000    0.00000000
     atom    2 type  1   force =     0.00000000    0.00118970    0.00000000
     atom    3 type  1   force =     0.00000000   -0.00000000    0.00000000
     atom    4 type  1   force =     0.00103031   -0.00059485    0.00000000
     atom    5 type  1   force =     0.00000000    0.00000000    0.00000000
     atom    6 type  1   force =    -0.00103031   -0.00059485    0.00000000

     Total force =     0.002061     Total SCF correction =     0.000002

     Computing stress (Cartesian axis) and pressure

          total   stress  (Ry/bohr**3)                   (kbar)     P= -111.08
  -0.00088729   0.00000000  -0.00000000       -130.52      0.00     -0.00
   0.00000000  -0.00088729   0.00000000          0.00   -130.52      0.00
   0.00000000   0.00000000  -0.00049078          0.00      0.00    -72.20

     BFGS Geometry Optimization

     number of scf cycles    =   1
     number of bfgs steps    =   0

     enthalpy new            =    -706.1626376138 Ry

     new trust radius        =       0.1261338412 bohr
     new conv_thr            =            1.0E-10 Ry

     new unit-cell volume =    763.39609 a.u.^3 (   113.12363 Ang^3 )
     density =      7.52149 g/cm^3

CELL_PARAMETERS (alat=  1.88972599)
   4.466188845  -2.578555517   0.000000000
  -4.466188845  -2.578555517   0.000000000
   0.000000000  -0.000000000  -4.911451480

ATOMIC_POSITIONS (angstrom)
Ti       0.000000000  -5.157111035  -4.911451480
Nb       0.000001489  -1.718422272  -2.455725740
Nb      -1.488729615  -2.578555517  -4.911451480
Nb      -1.488195001  -4.297901188  -2.455725740
Nb       1.488729615  -2.578555517  -4.911451480
Nb       1.488197979  -4.297901188  -2.455725740

     NEW-OLD atomic charge density approx. for the potential

     Check: negative/imaginary core charge=   -0.000001    0.000000
     extrapolated charge   72.52614, renormalised to   77.00000

[...]

     iteration #  1     ecut=    40.00 Ry     beta= 0.60
     Davidson diagonalization with overlap
     c_bands:  1 eigenvalues not converged
     c_bands:  1 eigenvalues not converged
     c_bands:  1 eigenvalues not converged
     c_bands:  1 eigenvalues not converged
     c_bands:  1 eigenvalues not converged
     c_bands:  1 eigenvalues not converged
     c_bands:  1 eigenvalues not converged
     c_bands:  1 eigenvalues not converged
     c_bands:  1 eigenvalues not converged
     c_bands:  1 eigenvalues not converged
     c_bands:  1 eigenvalues not converged
     c_bands:  1 eigenvalues not converged
     c_bands:  1 eigenvalues not converged
     c_bands:  1 eigenvalues not converged
     c_bands:  1 eigenvalues not converged
     c_bands:  1 eigenvalues not converged
     c_bands:  1 eigenvalues not converged
     c_bands:  1 eigenvalues not converged
     ethr =  1.00E-06,  avg # of iterations = 14.3

[...]

     enthalpy old            =    -706.1626376138 Ry
     enthalpy new            =    -706.1884020344 Ry

     CASE: enthalpy_new < enthalpy_old

[...]

     WARNING: bfgs curvature condition failed, Theta= 0.973
     new trust radius        =       0.0746533774 bohr
     new conv_thr            =            1.0E-10 Ry

[...]

     iteration #  1     ecut=    40.00 Ry     beta= 0.60
     Davidson diagonalization with overlap
     c_bands:  1 eigenvalues not converged
     ethr =  1.00E-06,  avg # of iterations =  9.2

[...]

     Threshold (ethr) on eigenvalues was too large:
     Diagonalizing with lowered threshold

     Davidson diagonalization with overlap
     ethr =  2.53E-08,  avg # of iterations =  2.4

[...]

     small trust_radius: resetting bfgs history

[...]

     number of scf cycles    =  13
     number of bfgs steps    =  12

     enthalpy old            =    -706.2049589386 Ry
     enthalpy new            =    -706.2049589394 Ry

     CASE: enthalpy_new < enthalpy_old

     Message from routine bfgs:
     history already reset at previous step: stopping
     small trust_radius: resetting bfgs history

     new trust radius        =       0.0000084702 bohr
     new conv_thr            =            1.0E-12 Ry

     new unit-cell volume =    742.31140 a.u.^3 (   109.99920 Ang^3 )
     density =      7.73513 g/cm^3

[...]

ATOMIC_POSITIONS (angstrom)
Ti      -0.000000000  -4.951035558  -5.181636383
Nb       0.000001430  -1.642597994  -2.590818192
Nb      -1.429240745  -2.475517779  -5.181636383
Nb      -1.422529335  -4.129737799  -2.590818192
Nb       1.429240745  -2.475517779  -5.181636383
Nb       1.422532194  -4.129737799  -2.590818192

     NEW-OLD atomic charge density approx. for the potential

     Check: negative/imaginary core charge=   -0.000001    0.000000
     extrapolated charge   76.99985, renormalised to   77.00000

[...]

     Threshold (ethr) on eigenvalues was too large:
     Diagonalizing with lowered threshold

     Davidson diagonalization with overlap
     ethr =  1.12E-12,  avg # of iterations =  3.4

[...]

     bfgs converged in  14 scf cycles and  13 bfgs steps
     (criteria: energy <  1.0E-10 Ry, force <  1.0E-05Ry/Bohr, cell <  1.0E-03kbar)

     End of BFGS Geometry Optimization

     Final enthalpy =    -706.2049589398 Ry
Begin final coordinates
     new unit-cell volume =    742.31140 a.u.^3 (   109.99920 Ang^3 )
     density =      7.73513 g/cm^3

CELL_PARAMETERS (alat=  1.88972599)
   4.287722234  -2.475517779   0.000000000
  -4.287722234  -2.475517779  -0.000000000
  -0.000000000  -0.000000000  -5.181636383

ATOMIC_POSITIONS (angstrom)
Ti      -0.000000000  -4.951035558  -5.181636383
Nb       0.000001430  -1.642597994  -2.590818192
Nb      -1.429240745  -2.475517779  -5.181636383
Nb      -1.422529335  -4.129737799  -2.590818192
Nb       1.429240745  -2.475517779  -5.181636383
Nb       1.422532194  -4.129737799  -2.590818192
End final coordinates

     A final scf calculation at the relaxed structure.
     The G-vectors are recalculated for the final unit cell
     Results may differ from those at the preceding step.

     bravais-lattice index     =            0
     lattice parameter (alat)  =       1.8897  a.u.
     unit-cell volume          =     742.3114 (a.u.)^3
     number of atoms/cell      =            6
     number of atomic types    =            2
     number of electrons       =        77.00
     number of Kohn-Sham states=           47
     kinetic-energy cutoff     =      40.0000  Ry
     charge density cutoff     =     400.0000  Ry
     convergence threshold     =      1.0E-12
     mixing beta               =       0.6000
     number of iterations used =            8  plain     mixing
     Exchange-correlation      = SLA PW PBE PBE ( 1  4  3  4 0 0)

     celldm(1)=   1.889726  celldm(2)=   0.000000  celldm(3)=   0.000000
     celldm(4)=   0.000000  celldm(5)=   0.000000  celldm(6)=   0.000000

     crystal axes: (cart. coord. in units of alat)
               a(1) = (   4.287722  -2.475518   0.000000 )
               a(2) = (  -4.287722  -2.475518  -0.000000 )
               a(3) = (  -0.000000  -0.000000  -5.181636 )

     reciprocal axes: (cart. coord. in units 2 pi/alat)
               b(1) = (  0.116612 -0.201978  0.000000 )
               b(2) = ( -0.116612 -0.201978  0.000000 )
               b(3) = (  0.000000  0.000000 -0.192989 )

     PseudoPot. # 1 for Nb read from file:
     ./Nb.pbe-nsp-van.UPF
     MD5 check sum: 0a22fc7fb0ba19a08ca5db297a5d2854
     Pseudo is Ultrasoft + core correction, Zval = 13.0
     Generated by new atomic code, or converted to UPF format
     Using radial grid of  887 points,  6 beta functions with:
                l(1) =   0
                l(2) =   0
                l(3) =   1
                l(4) =   1
                l(5) =   2
                l(6) =   2
     Q(r) pseudized with  6 coefficients,  rinner =    1.000   1.000   1.000
                                                       1.000   1.000

     PseudoPot. # 2 for Ti read from file:
     ./Ti.pbe-sp-van_ak.UPF
     MD5 check sum: f98fea3e8887528921fefa5636a534ca
     Pseudo is Ultrasoft, Zval = 12.0
     Generated by new atomic code, or converted to UPF format
     Using radial grid of  851 points,  6 beta functions with:
                l(1) =   0
                l(2) =   0
                l(3) =   1
                l(4) =   1
                l(5) =   2
                l(6) =   2
     Q(r) pseudized with  8 coefficients,  rinner =    1.000   1.000   1.000
                                                       1.000   1.000

     atomic species   valence    mass     pseudopotential
        Nb            13.00    92.90638     Nb( 1.00)
        Ti            12.00    47.86700     Ti( 1.00)

     12 Sym. Ops. (no inversion) found

   Cartesian axes

     site n.     atom                  positions (alat units)
         1           Ti  tau(   1) = (  -0.0000000  -4.9510359  -5.1816368  )
         2           Nb  tau(   2) = (   0.0000014  -1.6425981  -2.5908184  )
         3           Nb  tau(   3) = (  -1.4292409  -2.4755180  -5.1816368  )
         4           Nb  tau(   4) = (  -1.4225294  -4.1297381  -2.5908184  )
         5           Nb  tau(   5) = (   1.4292409  -2.4755180  -5.1816368  )
         6           Nb  tau(   6) = (   1.4225323  -4.1297381  -2.5908184  )

     number of k points=   112  Marzari-Vanderbilt smearing, width (Ry)=  0.0200

     Number of k-points >= 100: set verbosity='high' to print them.

     Check: negative/imaginary core charge=   -0.000001    0.000000

     Initial potential from superposition of free atoms

     starting charge   75.98629, renormalised to   77.00000
     Starting wfcs are   75 randomized atomic wfcs

     Self-consistent Calculation

[...]

     total energy              =    -706.20353183 Ry
     Harris-Foulkes estimate   =    -706.20353183 Ry
     estimated scf accuracy    <          2.5E-12 Ry

     iteration # 27     ecut=    40.00 Ry     beta= 0.60
     Davidson diagonalization with overlap
     ethr =  1.00E-13,  avg # of iterations =  2.9

     End of self-consistent calculation

     Number of k-points >= 100: set verbosity='high' to print the bands.

     the Fermi energy is    17.0457 ev

!    total energy              =    -706.20353183 Ry
     Harris-Foulkes estimate   =    -706.20353183 Ry
     estimated scf accuracy    <          6.4E-13 Ry

     The total energy is the sum of the following terms:

     one-electron contribution =    -129.48206142 Ry
     hartree contribution      =     101.95465950 Ry
     xc contribution           =    -106.64736948 Ry
     ewald contribution        =    -572.02752875 Ry
     smearing contrib. (-TS)   =      -0.00123167 Ry

     convergence has been achieved in  27 iterations

     Forces acting on atoms (cartesian axes, Ry/au):

     atom    1 type  2   force =     0.00000000    0.00000000    0.00000000
     atom    2 type  1   force =    -0.00000000    0.00001141   -0.00000000
     atom    3 type  1   force =     0.00000000   -0.00000000    0.00000000
     atom    4 type  1   force =     0.00000988   -0.00000570    0.00000000
     atom    5 type  1   force =    -0.00000000    0.00000000   -0.00000000
     atom    6 type  1   force =    -0.00000988   -0.00000570    0.00000000

     Total force =     0.000020     Total SCF correction =     0.000000

     Computing stress (Cartesian axis) and pressure

          total   stress  (Ry/bohr**3)                   (kbar)     P=   -0.03
  -0.00000164   0.00000000  -0.00000000         -0.24      0.00     -0.00
   0.00000000  -0.00000164  -0.00000000          0.00     -0.24     -0.00
  -0.00000000  -0.00000000   0.00000276         -0.00     -0.00      0.41

     General routines

     Parallel routines

       5h

   This run was terminated on:  10:15:57  27Jan2020

   JOB DONE.