     Program PWSCF v.6.3MaX starts on  2Feb2020 at 17:54: 4

     R & G space division:  proc/nbgrp/npool/nimage =       4
     Waiting for input...
     Reading input from standard input

     Current dimensions of program PWSCF are:
     Max number of different atomic species (ntypx) = 10
     Max number of k-points (npk) =  40000
     Max angular momentum in pseudopotentials (lmaxx) =  3
     Message from routine iosys:
     minimal I/O required, wf_collect reset to FALSE

     Subspace diagonalization in iterative solution of the eigenvalue problem:
     a serial algorithm will be used

     bravais-lattice index     =            0
     lattice parameter (alat)  =       1.8897  a.u.
     unit-cell volume          =     733.3418 (a.u.)^3
     number of atoms/cell      =            5
     number of atomic types    =            2
     number of electrons       =        61.00
     number of Kohn-Sham states=           37
     kinetic-energy cutoff     =      50.0000  Ry
     charge density cutoff     =     500.0000  Ry
     convergence threshold     =      1.0E-10
     mixing beta               =       0.6000
     number of iterations used =            8  plain     mixing
     Exchange-correlation      = SLA PW PBE PBE ( 1  4  3  4 0 0)
     nstep                     =           50

     celldm(1)=   1.889726  celldm(2)=   0.000000  celldm(3)=   0.000000
     celldm(4)=   0.000000  celldm(5)=   0.000000  celldm(6)=   0.000000

     crystal axes: (cart. coord. in units of alat)
               a(1) = (   5.274095   1.758031   5.274095 )
               a(2) = (   1.758031   5.274095   5.274095 )
               a(3) = (  -1.758031  -1.758031   1.758031 )

     reciprocal axes: (cart. coord. in units 2 pi/alat)
               b(1) = (  0.170645 -0.113764  0.056882 )
               b(2) = ( -0.113764  0.170645  0.056882 )
               b(3) = ( -0.170645 -0.170645  0.227527 )

     PseudoPot. # 1 for Nb read from file:
     ./Nb.pbe-nsp-van.UPF
     MD5 check sum: 0a22fc7fb0ba19a08ca5db297a5d2854
     Pseudo is Ultrasoft + core correction, Zval = 13.0
     Generated by new atomic code, or converted to UPF format
     Using radial grid of  887 points,  6 beta functions with:
                l(1) =   0
                l(2) =   0
                l(3) =   1
                l(4) =   1
                l(5) =   2
                l(6) =   2
     Q(r) pseudized with  6 coefficients,  rinner =    1.000   1.000   1.000
                                                       1.000   1.000

     PseudoPot. # 2 for Ti read from file:
     ./Ti.pbe-sp-van_ak.UPF
     MD5 check sum: f98fea3e8887528921fefa5636a534ca
     Pseudo is Ultrasoft, Zval = 12.0
     Generated by new atomic code, or converted to UPF format
     Using radial grid of  851 points,  6 beta functions with:
                l(1) =   0
                l(2) =   0
                l(3) =   1
                l(4) =   1
                l(5) =   2
                l(6) =   2
     Q(r) pseudized with  8 coefficients,  rinner =    1.000   1.000   1.000
                                                       1.000   1.000

     atomic species   valence    mass     pseudopotential
        Nb            13.00    92.90638     Nb( 1.00)
        Ti            12.00    47.86700     Ti( 1.00)

      4 Sym. Ops., with inversion, found

   Cartesian axes

     site n.     atom                  positions (alat units)
         1           Ti  tau(   1) = (   0.0000000   0.0000000   3.5160633  )
         2           Ti  tau(   2) = (   1.7580316   1.7580316   5.2740949  )
         3           Ti  tau(   3) = (   3.5160633   3.5160633   7.0321265  )
         4           Ti  tau(   4) = (   5.2740949   5.2740949   8.7901582  )
         5           Nb  tau(   5) = (   5.2740949   5.2740949  12.3062214  )

     number of k points=   500  Marzari-Vanderbilt smearing, width (Ry)=  0.0200

     Number of k-points >= 100: set verbosity='high' to print them.

     Initial potential from superposition of free atoms

     starting charge   56.99709, renormalised to   61.00000
     Starting wfcs are   53 randomized atomic wfcs

     Self-consistent Calculation

     iteration #  1     ecut=    50.00 Ry     beta= 0.60
     Davidson diagonalization with overlap
     ethr =  1.00E-02,  avg # of iterations =  4.1

     total energy              =    -572.69788760 Ry
     Harris-Foulkes estimate   =    -586.98216409 Ry
     estimated scf accuracy    <      17.89548342 Ry

[...]

     iteration # 18     ecut=    50.00 Ry     beta= 0.60
     Davidson diagonalization with overlap
     c_bands:  1 eigenvalues not converged
     c_bands:  1 eigenvalues not converged
     c_bands:  1 eigenvalues not converged
     c_bands:  1 eigenvalues not converged
     c_bands:  1 eigenvalues not converged
     c_bands:  1 eigenvalues not converged
     c_bands:  2 eigenvalues not converged
     c_bands:  1 eigenvalues not converged
     c_bands:  2 eigenvalues not converged
     c_bands:  1 eigenvalues not converged
     c_bands:  2 eigenvalues not converged
     c_bands:  1 eigenvalues not converged
     c_bands:  1 eigenvalues not converged
     c_bands:  1 eigenvalues not converged
     c_bands:  1 eigenvalues not converged
     c_bands:  1 eigenvalues not converged
     c_bands:  1 eigenvalues not converged
     c_bands:  1 eigenvalues not converged
     c_bands:  1 eigenvalues not converged
     c_bands:  1 eigenvalues not converged
     c_bands:  1 eigenvalues not converged
     c_bands:  1 eigenvalues not converged
     c_bands:  1 eigenvalues not converged
     c_bands:  1 eigenvalues not converged
     c_bands:  2 eigenvalues not converged
     c_bands:  1 eigenvalues not converged
     c_bands:  1 eigenvalues not converged
     c_bands:  1 eigenvalues not converged
     c_bands:  1 eigenvalues not converged
     c_bands:  1 eigenvalues not converged
     c_bands:  1 eigenvalues not converged
     c_bands:  1 eigenvalues not converged
     c_bands:  1 eigenvalues not converged
     c_bands:  1 eigenvalues not converged
     c_bands:  1 eigenvalues not converged
     c_bands:  1 eigenvalues not converged
     c_bands:  1 eigenvalues not converged
     c_bands:  1 eigenvalues not converged
     c_bands:  1 eigenvalues not converged
     ethr =  2.50E-06,  avg # of iterations =  7.0

[...]

     End of self-consistent calculation

     Number of k-points >= 100: set verbosity='high' to print the bands.

     the Fermi energy is    10.8406 ev

!    total energy              =    -584.41065387 Ry
     Harris-Foulkes estimate   =    -584.41065387 Ry
     estimated scf accuracy    <          4.5E-11 Ry

     The total energy is the sum of the following terms:

     one-electron contribution =    -228.26856497 Ry
     hartree contribution      =     127.35770693 Ry
     xc contribution           =     -75.75260816 Ry
     ewald contribution        =    -407.74578687 Ry
     smearing contrib. (-TS)   =      -0.00140080 Ry

     convergence has been achieved in  28 iterations

     Forces acting on atoms (cartesian axes, Ry/au):

     atom    1 type  2   force =    -0.00502578   -0.00502578   -0.00542773
     atom    2 type  2   force =    -0.00052590   -0.00052590    0.00757956
     atom    3 type  2   force =     0.00052590    0.00052590   -0.00757956
     atom    4 type  2   force =     0.00502578    0.00502578    0.00542773
     atom    5 type  1   force =     0.00000000    0.00000000    0.00000000

     Total force =     0.016612     Total SCF correction =     0.000017

     Computing stress (Cartesian axis) and pressure

          total   stress  (Ry/bohr**3)                   (kbar)     P= -180.39
  -0.00122525  -0.00000836   0.00000496       -180.24     -1.23      0.73
  -0.00000836  -0.00122525   0.00000496         -1.23   -180.24      0.73
   0.00000496   0.00000496  -0.00122830          0.73      0.73   -180.69

     BFGS Geometry Optimization

     number of scf cycles    =   1
     number of bfgs steps    =   0

     enthalpy new            =    -584.4106538720 Ry

     new trust radius        =       0.1663158223 bohr
     new conv_thr            =            1.0E-10 Ry

     new unit-cell volume =    667.94294 a.u.^3 (    98.97893 Ang^3 )
     density =      4.77086 g/cm^3

CELL_PARAMETERS (alat=  1.88972599)
   5.112828632   1.703732412   5.113011868
   1.703732412   5.112828632   5.113011868
  -1.703595771  -1.703595771   1.703611303

ATOMIC_POSITIONS (angstrom)
Ti      -0.002142273  -0.002142273   3.405309101
Ti       1.704197738   1.704197738   5.116463974
Ti       3.408767534   3.408767534   6.813171065
Ti       5.115107546   5.115107546   8.524325938
Nb       5.112965272   5.112965272  11.929635039

     NEW-OLD atomic charge density approx. for the potential
     extrapolated charge   55.41936, renormalised to   61.00000

[...]

     enthalpy old            =    -584.4106538720 Ry
     enthalpy new            =    -584.4800110487 Ry

     CASE: enthalpy_new < enthalpy_old

[...]

     Threshold (ethr) on eigenvalues was too large:
     Diagonalizing with lowered threshold

     Davidson diagonalization with overlap
     ethr =  8.86E-08,  avg # of iterations =  1.2

[...]

     WARNING: bfgs curvature condition failed, Theta= 0.811
     new trust radius        =       0.0084155849 bohr
     new conv_thr            =            1.0E-10 Ry

[...]

     small trust_radius: resetting bfgs history

[...]

     Total force =     0.000021     Total SCF correction =     0.000002
     SCF correction compared to forces is large: reduce conv_thr to get better values

[...]

     number of scf cycles    =  43
     number of bfgs steps    =  42

     enthalpy old            =    -584.5273511028 Ry
     enthalpy new            =    -584.5273511049 Ry

     CASE: enthalpy_new < enthalpy_old

     Message from routine bfgs:
     history already reset at previous step: stopping
     small trust_radius: resetting bfgs history

     new trust radius        =       0.0000202655 bohr
     new conv_thr            =            1.3E-12 Ry

     new unit-cell volume =    587.11564 a.u.^3 (    87.00156 Ang^3 )
     density =      5.42766 g/cm^3

[...]

ATOMIC_POSITIONS (angstrom)
Ti       0.023353085   0.023353085   3.311696440
Ti       1.383441209   1.383441209   5.318168259
Ti       3.255375270   3.255375270   6.579969191
Ti       4.615463394   4.615463394   8.586441011
Nb       4.638816480   4.638816480  11.898137451

     NEW-OLD atomic charge density approx. for the potential
     extrapolated charge   61.00014, renormalised to   61.00000

[...]

     Threshold (ethr) on eigenvalues was too large:
     Diagonalizing with lowered threshold

     Davidson diagonalization with overlap
     ethr =  6.01E-12,  avg # of iterations =  3.3

[...]

     bfgs converged in  44 scf cycles and  43 bfgs steps
     (criteria: energy <  1.0E-10 Ry, force <  1.0E-05Ry/Bohr, cell <  1.0E-03kbar)

     End of BFGS Geometry Optimization

     Final enthalpy =    -584.5273511062 Ry
Begin final coordinates
     new unit-cell volume =    587.11564 a.u.^3 (    87.00156 Ang^3 )
     density =      5.42766 g/cm^3

CELL_PARAMETERS (alat=  1.88972599)
   4.723109714   1.513560278   5.076473292
   1.513560278   4.723109714   5.076473292
  -1.597853512  -1.597853512   1.745190868

ATOMIC_POSITIONS (angstrom)
Ti       0.023353085   0.023353085   3.311696440
Ti       1.383441209   1.383441209   5.318168259
Ti       3.255375270   3.255375270   6.579969191
Ti       4.615463394   4.615463394   8.586441011
Nb       4.638816480   4.638816480  11.898137451
End final coordinates

     A final scf calculation at the relaxed structure.
     The G-vectors are recalculated for the final unit cell
     Results may differ from those at the preceding step.

     bravais-lattice index     =            0
     lattice parameter (alat)  =       1.8897  a.u.
     unit-cell volume          =     587.1156 (a.u.)^3
     number of atoms/cell      =            5
     number of atomic types    =            2
     number of electrons       =        61.00
     number of Kohn-Sham states=           37
     kinetic-energy cutoff     =      50.0000  Ry
     charge density cutoff     =     500.0000  Ry
     convergence threshold     =      1.3E-12
     mixing beta               =       0.6000
     number of iterations used =            8  plain     mixing
     Exchange-correlation      = SLA PW PBE PBE ( 1  4  3  4 0 0)

     celldm(1)=   1.889726  celldm(2)=   0.000000  celldm(3)=   0.000000
     celldm(4)=   0.000000  celldm(5)=   0.000000  celldm(6)=   0.000000

     crystal axes: (cart. coord. in units of alat)
               a(1) = (   4.723110   1.513560   5.076473 )
               a(2) = (   1.513560   4.723110   5.076473 )
               a(3) = (  -1.597854  -1.597854   1.745191 )

     reciprocal axes: (cart. coord. in units 2 pi/alat)
               b(1) = (  0.187976 -0.123594  0.058946 )
               b(2) = ( -0.123594  0.187976  0.058946 )
               b(3) = ( -0.187275 -0.187275  0.230075 )

     PseudoPot. # 1 for Nb read from file:
     ./Nb.pbe-nsp-van.UPF
     MD5 check sum: 0a22fc7fb0ba19a08ca5db297a5d2854
     Pseudo is Ultrasoft + core correction, Zval = 13.0
     Generated by new atomic code, or converted to UPF format
     Using radial grid of  887 points,  6 beta functions with:
                l(1) =   0
                l(2) =   0
                l(3) =   1
                l(4) =   1
                l(5) =   2
                l(6) =   2
     Q(r) pseudized with  6 coefficients,  rinner =    1.000   1.000   1.000
                                                       1.000   1.000

     PseudoPot. # 2 for Ti read from file:
     ./Ti.pbe-sp-van_ak.UPF
     MD5 check sum: f98fea3e8887528921fefa5636a534ca
     Pseudo is Ultrasoft, Zval = 12.0
     Generated by new atomic code, or converted to UPF format
     Using radial grid of  851 points,  6 beta functions with:
                l(1) =   0
                l(2) =   0
                l(3) =   1
                l(4) =   1
                l(5) =   2
                l(6) =   2
     Q(r) pseudized with  8 coefficients,  rinner =    1.000   1.000   1.000
                                                       1.000   1.000

     atomic species   valence    mass     pseudopotential
        Nb            13.00    92.90638     Nb( 1.00)
        Ti            12.00    47.86700     Ti( 1.00)

      4 Sym. Ops., with inversion, found

   Cartesian axes

     site n.     atom                  positions (alat units)
         1           Ti  tau(   1) = (   0.0233531   0.0233531   3.3116967  )
         2           Ti  tau(   2) = (   1.3834413   1.3834413   5.3181687  )
         3           Ti  tau(   3) = (   3.2553755   3.2553755   6.5799697  )
         4           Ti  tau(   4) = (   4.6154637   4.6154637   8.5864417  )
         5           Nb  tau(   5) = (   4.6388168   4.6388168  11.8981384  )

     number of k points=   500  Marzari-Vanderbilt smearing, width (Ry)=  0.0200

     Number of k-points >= 100: set verbosity='high' to print them.

     Initial potential from superposition of free atoms

     starting charge   56.99709, renormalised to   61.00000
     Starting wfcs are   53 randomized atomic wfcs

     Self-consistent Calculation

     iteration #  1     ecut=    50.00 Ry     beta= 0.60
     Davidson diagonalization with overlap
     c_bands:  1 eigenvalues not converged
     c_bands:  1 eigenvalues not converged
     c_bands:  1 eigenvalues not converged
     c_bands:  2 eigenvalues not converged
     c_bands:  2 eigenvalues not converged
     c_bands:  1 eigenvalues not converged
     c_bands:  1 eigenvalues not converged
     c_bands:  1 eigenvalues not converged
     c_bands:  1 eigenvalues not converged
     c_bands:  1 eigenvalues not converged
     c_bands:  1 eigenvalues not converged
     c_bands:  2 eigenvalues not converged
     c_bands:  1 eigenvalues not converged
     c_bands:  1 eigenvalues not converged
     c_bands:  2 eigenvalues not converged
     c_bands:  2 eigenvalues not converged
     c_bands:  2 eigenvalues not converged
     c_bands:  2 eigenvalues not converged
     c_bands:  2 eigenvalues not converged
     c_bands:  2 eigenvalues not converged
     c_bands:  2 eigenvalues not converged
     c_bands:  2 eigenvalues not converged
     c_bands:  2 eigenvalues not converged
     c_bands:  1 eigenvalues not converged
     c_bands:  1 eigenvalues not converged
     c_bands:  2 eigenvalues not converged
     c_bands:  2 eigenvalues not converged
     c_bands:  1 eigenvalues not converged
     c_bands:  1 eigenvalues not converged
     c_bands:  2 eigenvalues not converged
     c_bands:  1 eigenvalues not converged
     c_bands:  1 eigenvalues not converged
     c_bands:  1 eigenvalues not converged
     c_bands:  1 eigenvalues not converged
     c_bands:  1 eigenvalues not converged
     c_bands:  1 eigenvalues not converged
     c_bands:  2 eigenvalues not converged
     c_bands:  2 eigenvalues not converged
     c_bands:  2 eigenvalues not converged
     c_bands:  1 eigenvalues not converged
     c_bands:  1 eigenvalues not converged
     c_bands:  1 eigenvalues not converged
     c_bands:  1 eigenvalues not converged
     c_bands:  2 eigenvalues not converged
     c_bands:  2 eigenvalues not converged
     c_bands:  1 eigenvalues not converged
     c_bands:  1 eigenvalues not converged
     c_bands:  2 eigenvalues not converged
     c_bands:  2 eigenvalues not converged
     c_bands:  1 eigenvalues not converged
     c_bands:  1 eigenvalues not converged
     c_bands:  1 eigenvalues not converged
     c_bands:  1 eigenvalues not converged
     c_bands:  1 eigenvalues not converged
     c_bands:  1 eigenvalues not converged
     c_bands:  1 eigenvalues not converged
     c_bands:  1 eigenvalues not converged
     c_bands:  1 eigenvalues not converged
     c_bands:  1 eigenvalues not converged
     c_bands:  1 eigenvalues not converged
[...]
     c_bands:  2 eigenvalues not converged
     c_bands:  1 eigenvalues not converged
     c_bands:  1 eigenvalues not converged
     c_bands:  1 eigenvalues not converged
     c_bands:  2 eigenvalues not converged
     c_bands:  3 eigenvalues not converged
     c_bands:  3 eigenvalues not converged
     c_bands:  1 eigenvalues not converged
     c_bands:  1 eigenvalues not converged
     c_bands:  1 eigenvalues not converged
     c_bands:  1 eigenvalues not converged
     c_bands:  1 eigenvalues not converged
     c_bands:  1 eigenvalues not converged
     c_bands:  1 eigenvalues not converged
     c_bands:  1 eigenvalues not converged
     ethr =  1.00E-06,  avg # of iterations = 19.5

[...]

     total energy              =    -584.52677362 Ry
     Harris-Foulkes estimate   =    -584.52677362 Ry
     estimated scf accuracy    <          3.1E-12 Ry

     iteration # 36     ecut=    50.00 Ry     beta= 0.60
     Davidson diagonalization with overlap
     ethr =  1.00E-13,  avg # of iterations =  1.0

     End of self-consistent calculation

     Number of k-points >= 100: set verbosity='high' to print the bands.

     the Fermi energy is    14.1910 ev

!    total energy              =    -584.52677362 Ry
     Harris-Foulkes estimate   =    -584.52677362 Ry
     estimated scf accuracy    <          5.0E-13 Ry

     The total energy is the sum of the following terms:

     one-electron contribution =    -183.10434956 Ry
     hartree contribution      =     113.38733575 Ry
     xc contribution           =     -76.59913558 Ry
     ewald contribution        =    -438.21234688 Ry
     smearing contrib. (-TS)   =       0.00172264 Ry

     convergence has been achieved in  36 iterations

     Forces acting on atoms (cartesian axes, Ry/au):

     atom    1 type  2   force =     0.00002166    0.00002166   -0.00000842
     atom    2 type  2   force =     0.00000404    0.00000404   -0.00003209
     atom    3 type  2   force =    -0.00000404   -0.00000404    0.00003209
     atom    4 type  2   force =    -0.00002166   -0.00002166    0.00000842
     atom    5 type  1   force =     0.00000000    0.00000000    0.00000000

     Total force =     0.000064     Total SCF correction =     0.000002

     Computing stress (Cartesian axis) and pressure

          total   stress  (Ry/bohr**3)                   (kbar)     P=   -0.14
   0.00000031   0.00000023   0.00000059          0.04      0.03      0.09
   0.00000023   0.00000031   0.00000059          0.03      0.04      0.09
   0.00000059   0.00000059  -0.00000345          0.09      0.09     -0.51

     General routines

     Parallel routines

      40h

   This run was terminated on:   7:34:33   3Feb2020

   JOB DONE.