     Program PWSCF v.6.3MaX starts on 25Feb2020 at 10:14:39

     R & G space division:  proc/nbgrp/npool/nimage =       4
     Waiting for input...
     Reading input from standard input

     Current dimensions of program PWSCF are:
     Max number of different atomic species (ntypx) = 10
     Max number of k-points (npk) =  40000
     Max angular momentum in pseudopotentials (lmaxx) =  3
     Message from routine iosys:
     minimal I/O required, wf_collect reset to FALSE

     Subspace diagonalization in iterative solution of the eigenvalue problem:
     a serial algorithm will be used

     bravais-lattice index     =            0
     lattice parameter (alat)  =       1.8897  a.u.
     unit-cell volume          =     733.3418 (a.u.)^3
     number of atoms/cell      =            5
     number of atomic types    =            2
     number of electrons       =        63.00
     number of Kohn-Sham states=           38
     kinetic-energy cutoff     =      50.0000  Ry
     charge density cutoff     =     500.0000  Ry
     convergence threshold     =      1.0E-10
     mixing beta               =       0.6000
     number of iterations used =            8  plain     mixing
     Exchange-correlation      = SLA PW PBE PBE ( 1  4  3  4 0 0)
     nstep                     =           50

     celldm(1)=   1.889726  celldm(2)=   0.000000  celldm(3)=   0.000000
     celldm(4)=   0.000000  celldm(5)=   0.000000  celldm(6)=   0.000000

     crystal axes: (cart. coord. in units of alat)
               a(1) = (  -1.758031   1.758031   5.274095 )
               a(2) = (  -1.758031   5.274095   1.758031 )
               a(3) = (  -5.274095   1.758031   1.758031 )

     reciprocal axes: (cart. coord. in units 2 pi/alat)
               b(1) = (  0.056882 -0.056882  0.227527 )
               b(2) = (  0.056882  0.227527 -0.056882 )
               b(3) = ( -0.227527 -0.056882 -0.056882 )

     PseudoPot. # 1 for Nb read from file:
     ./Nb.pbe-nsp-van.UPF
     MD5 check sum: 0a22fc7fb0ba19a08ca5db297a5d2854
     Pseudo is Ultrasoft + core correction, Zval = 13.0
     Generated by new atomic code, or converted to UPF format
     Using radial grid of  887 points,  6 beta functions with:
                l(1) =   0
                l(2) =   0
                l(3) =   1
                l(4) =   1
                l(5) =   2
                l(6) =   2
     Q(r) pseudized with  6 coefficients,  rinner =    1.000   1.000   1.000
                                                       1.000   1.000

     PseudoPot. # 2 for Ti read from file:
     ./Ti.pbe-sp-van_ak.UPF
     MD5 check sum: f98fea3e8887528921fefa5636a534ca
     Pseudo is Ultrasoft, Zval = 12.0
     Generated by new atomic code, or converted to UPF format
     Using radial grid of  851 points,  6 beta functions with:
                l(1) =   0
                l(2) =   0
                l(3) =   1
                l(4) =   1
                l(5) =   2
                l(6) =   2
     Q(r) pseudized with  8 coefficients,  rinner =    1.000   1.000   1.000
                                                       1.000   1.000

     atomic species   valence    mass     pseudopotential
        Nb            13.00    92.90638     Nb( 1.00)
        Ti            12.00    47.86700     Ti( 1.00)

     12 Sym. Ops., with inversion, found ( 6 have fractional translation)

   Cartesian axes

     site n.     atom                  positions (alat units)
         1           Ti  tau(   1) = (  -3.5160633   3.5160633   3.5160633  )
         2           Nb  tau(   2) = (  -5.2740949   5.2740949   5.2740949  )
         3           Ti  tau(   3) = (  -7.0321265   7.0321265   7.0321265  )
         4           Nb  tau(   4) = (  -8.7901582   8.7901582   8.7901582  )
         5           Nb  tau(   5) = (  -1.7580316   1.7580316   1.7580316  )

     number of k points=   189  Marzari-Vanderbilt smearing, width (Ry)=  0.0200

     Number of k-points >= 100: set verbosity='high' to print them.

     Initial potential from superposition of free atoms

     starting charge   60.99171, renormalised to   63.00000
     Starting wfcs are   59 randomized atomic wfcs

     Self-consistent Calculation

     iteration #  1     ecut=    50.00 Ry     beta= 0.60
     Davidson diagonalization with overlap
     ethr =  1.00E-02,  avg # of iterations =  3.0

     total energy              =    -567.18890973 Ry
     Harris-Foulkes estimate   =    -589.49185837 Ry
     estimated scf accuracy    <      28.06119400 Ry

[...]

     End of self-consistent calculation

     Number of k-points >= 100: set verbosity='high' to print the bands.

     the Fermi energy is    12.6226 ev

!    total energy              =    -586.98268513 Ry
     Harris-Foulkes estimate   =    -586.98268513 Ry
     estimated scf accuracy    <          3.8E-11 Ry

     The total energy is the sum of the following terms:

     one-electron contribution =    -175.21022029 Ry
     hartree contribution      =     106.79480004 Ry
     xc contribution           =     -83.49251435 Ry
     ewald contribution        =    -435.07315947 Ry
     smearing contrib. (-TS)   =      -0.00159106 Ry

     convergence has been achieved in  39 iterations

     Forces acting on atoms (cartesian axes, Ry/au):

     atom    1 type  2   force =     0.00286524   -0.00286524   -0.00286524
     atom    2 type  1   force =     0.00000000    0.00000000    0.00000000
     atom    3 type  2   force =    -0.00286524    0.00286524    0.00286524
     atom    4 type  1   force =    -0.00544079    0.00544079    0.00544079
     atom    5 type  1   force =     0.00544079   -0.00544079   -0.00544079

     Total force =     0.015062     Total SCF correction =     0.000006

     Computing stress (Cartesian axis) and pressure

          total   stress  (Ry/bohr**3)                   (kbar)     P= -203.63
  -0.00138425  -0.00000354  -0.00000354       -203.63     -0.52     -0.52
  -0.00000354  -0.00138425   0.00000354         -0.52   -203.63      0.52
  -0.00000354   0.00000354  -0.00138425         -0.52      0.52   -203.63

     BFGS Geometry Optimization

     number of scf cycles    =   1
     number of bfgs steps    =   0

     enthalpy new            =    -586.9826851270 Ry

     new trust radius        =       0.1874309922 bohr
     new conv_thr            =            1.0E-10 Ry

     new unit-cell volume =    659.81140 a.u.^3 (    97.77396 Ang^3 )
     density =      6.35951 g/cm^3

CELL_PARAMETERS (alat=  1.88972599)
  -1.697815543   1.697815543   5.091889049
  -1.697815543   5.091889049   1.697815543
  -5.091889049   1.697815543   1.697815543

ATOMIC_POSITIONS (angstrom)
Ti      -3.393544035   3.393544035   3.393544035
Nb      -5.092512081   5.092512081   5.092512081
Ti      -6.791480126   6.791480126   6.791480126
Nb      -8.490300151   8.490300151   8.490300151
Nb      -1.694724010   1.694724010   1.694724010

     NEW-OLD atomic charge density approx. for the potential
     extrapolated charge   56.20299, renormalised to   63.00000

[...]

     iteration #  1     ecut=    50.00 Ry     beta= 0.60
     Davidson diagonalization with overlap
     c_bands:  1 eigenvalues not converged
     c_bands:  1 eigenvalues not converged
     c_bands:  1 eigenvalues not converged
     c_bands:  1 eigenvalues not converged
     c_bands:  1 eigenvalues not converged
     c_bands:  1 eigenvalues not converged
     c_bands:  1 eigenvalues not converged
     c_bands:  1 eigenvalues not converged
     c_bands:  1 eigenvalues not converged
     c_bands:  1 eigenvalues not converged
     c_bands:  1 eigenvalues not converged
     c_bands:  1 eigenvalues not converged
     c_bands:  1 eigenvalues not converged
     c_bands:  1 eigenvalues not converged
     c_bands:  1 eigenvalues not converged
     c_bands:  1 eigenvalues not converged
     c_bands:  1 eigenvalues not converged
     c_bands:  1 eigenvalues not converged
     c_bands:  1 eigenvalues not converged
     c_bands:  1 eigenvalues not converged
     c_bands:  1 eigenvalues not converged
     c_bands:  1 eigenvalues not converged
     c_bands:  1 eigenvalues not converged
     ethr =  1.00E-06,  avg # of iterations = 16.3

[...]

     enthalpy old            =    -586.9826851270 Ry
     enthalpy new            =    -587.0659801644 Ry

     CASE: enthalpy_new < enthalpy_old

[...]

     iteration #  1     ecut=    50.00 Ry     beta= 0.60
     Davidson diagonalization with overlap
     c_bands:  1 eigenvalues not converged
     c_bands:  1 eigenvalues not converged
     c_bands:  1 eigenvalues not converged
     c_bands:  1 eigenvalues not converged
     c_bands:  1 eigenvalues not converged
     c_bands:  1 eigenvalues not converged
     c_bands:  1 eigenvalues not converged
     c_bands:  1 eigenvalues not converged
     c_bands:  2 eigenvalues not converged
     c_bands:  1 eigenvalues not converged
     c_bands:  1 eigenvalues not converged
     c_bands:  1 eigenvalues not converged
     c_bands:  2 eigenvalues not converged
     c_bands:  1 eigenvalues not converged
     c_bands:  1 eigenvalues not converged
     c_bands:  1 eigenvalues not converged
     c_bands:  1 eigenvalues not converged
     c_bands:  2 eigenvalues not converged
     c_bands:  1 eigenvalues not converged
     c_bands:  1 eigenvalues not converged
     c_bands:  1 eigenvalues not converged
     c_bands:  2 eigenvalues not converged
     c_bands:  1 eigenvalues not converged
     c_bands:  2 eigenvalues not converged
     c_bands:  1 eigenvalues not converged
     c_bands:  1 eigenvalues not converged
     ethr =  1.00E-06,  avg # of iterations = 16.1

[...]

     Threshold (ethr) on eigenvalues was too large:
     Diagonalizing with lowered threshold

     Davidson diagonalization with overlap
     ethr =  8.54E-08,  avg # of iterations =  1.1

[...]

     small trust_radius: resetting bfgs history

[...]

     number of scf cycles    =  21
     number of bfgs steps    =  20

     enthalpy old            =    -587.0964803882 Ry
     enthalpy new            =    -587.0964803884 Ry

     CASE: enthalpy_new < enthalpy_old

     Message from routine bfgs:
     history already reset at previous step: stopping
     small trust_radius: resetting bfgs history

     new trust radius        =       0.0000065005 bohr
     new conv_thr            =            1.0E-12 Ry

     new unit-cell volume =    596.70183 a.u.^3 (    88.42209 Ang^3 )
     density =      7.03211 g/cm^3

[...]

ATOMIC_POSITIONS (angstrom)
Ti      -3.234263529   3.234263529   3.234263529
Nb      -4.873159590   4.873159590   4.873159590
Ti      -6.512055651   6.512055651   6.512055651
Nb      -8.167225626   8.167225626   8.167225626
Nb      -1.579093554   1.579093554   1.579093554

     NEW-OLD atomic charge density approx. for the potential
     extrapolated charge   63.00014, renormalised to   63.00000

[...]

     Threshold (ethr) on eigenvalues was too large:
     Diagonalizing with lowered threshold

     Davidson diagonalization with overlap
     ethr =  3.57E-12,  avg # of iterations =  2.2

[...]

     Total force =     0.000009     Total SCF correction =     0.000001
     SCF correction compared to forces is large: reduce conv_thr to get better values

[...]

     bfgs converged in  22 scf cycles and  21 bfgs steps
     (criteria: energy <  1.0E-10 Ry, force <  1.0E-05Ry/Bohr, cell <  1.0E-03kbar)

     End of BFGS Geometry Optimization

     Final enthalpy =    -587.0964803886 Ry
Begin final coordinates
     new unit-cell volume =    596.70183 a.u.^3 (    88.42209 Ang^3 )
     density =      7.03211 g/cm^3

CELL_PARAMETERS (alat=  1.88972599)
  -1.607470946   1.607470946   4.906990757
  -1.607470946   4.906990757   1.607470946
  -4.906990757   1.607470946   1.607470946

ATOMIC_POSITIONS (angstrom)
Ti      -3.234263529   3.234263529   3.234263529
Nb      -4.873159590   4.873159590   4.873159590
Ti      -6.512055651   6.512055651   6.512055651
Nb      -8.167225626   8.167225626   8.167225626
Nb      -1.579093554   1.579093554   1.579093554
End final coordinates

     A final scf calculation at the relaxed structure.
     The G-vectors are recalculated for the final unit cell
     Results may differ from those at the preceding step.

     bravais-lattice index     =            0
     lattice parameter (alat)  =       1.8897  a.u.
     unit-cell volume          =     596.7018 (a.u.)^3
     number of atoms/cell      =            5
     number of atomic types    =            2
     number of electrons       =        63.00
     number of Kohn-Sham states=           38
     kinetic-energy cutoff     =      50.0000  Ry
     charge density cutoff     =     500.0000  Ry
     convergence threshold     =      1.0E-12
     mixing beta               =       0.6000
     number of iterations used =            8  plain     mixing
     Exchange-correlation      = SLA PW PBE PBE ( 1  4  3  4 0 0)

     celldm(1)=   1.889726  celldm(2)=   0.000000  celldm(3)=   0.000000
     celldm(4)=   0.000000  celldm(5)=   0.000000  celldm(6)=   0.000000

     crystal axes: (cart. coord. in units of alat)
               a(1) = (  -1.607471   1.607471   4.906991 )
               a(2) = (  -1.607471   4.906991   1.607471 )
               a(3) = (  -4.906991   1.607471   1.607471 )

     reciprocal axes: (cart. coord. in units 2 pi/alat)
               b(1) = (  0.059984 -0.059984  0.243091 )
               b(2) = (  0.059984  0.243091 -0.059984 )
               b(3) = ( -0.243091 -0.059984 -0.059984 )

     PseudoPot. # 1 for Nb read from file:
     ./Nb.pbe-nsp-van.UPF
     MD5 check sum: 0a22fc7fb0ba19a08ca5db297a5d2854
     Pseudo is Ultrasoft + core correction, Zval = 13.0
     Generated by new atomic code, or converted to UPF format
     Using radial grid of  887 points,  6 beta functions with:
                l(1) =   0
                l(2) =   0
                l(3) =   1
                l(4) =   1
                l(5) =   2
                l(6) =   2
     Q(r) pseudized with  6 coefficients,  rinner =    1.000   1.000   1.000
                                                       1.000   1.000

     PseudoPot. # 2 for Ti read from file:
     ./Ti.pbe-sp-van_ak.UPF
     MD5 check sum: f98fea3e8887528921fefa5636a534ca
     Pseudo is Ultrasoft, Zval = 12.0
     Generated by new atomic code, or converted to UPF format
     Using radial grid of  851 points,  6 beta functions with:
                l(1) =   0
                l(2) =   0
                l(3) =   1
                l(4) =   1
                l(5) =   2
                l(6) =   2
     Q(r) pseudized with  8 coefficients,  rinner =    1.000   1.000   1.000
                                                       1.000   1.000

     atomic species   valence    mass     pseudopotential
        Nb            13.00    92.90638     Nb( 1.00)
        Ti            12.00    47.86700     Ti( 1.00)

     12 Sym. Ops., with inversion, found ( 6 have fractional translation)

   Cartesian axes

     site n.     atom                  positions (alat units)
         1           Ti  tau(   1) = (  -3.2342638   3.2342638   3.2342638  )
         2           Nb  tau(   2) = (  -4.8731600   4.8731600   4.8731600  )
         3           Ti  tau(   3) = (  -6.5120561   6.5120561   6.5120561  )
         4           Nb  tau(   4) = (  -8.1672262   8.1672262   8.1672262  )
         5           Nb  tau(   5) = (  -1.5790937   1.5790937   1.5790937  )

     number of k points=   189  Marzari-Vanderbilt smearing, width (Ry)=  0.0200

     Number of k-points >= 100: set verbosity='high' to print them.

     Initial potential from superposition of free atoms

     starting charge   60.99171, renormalised to   63.00000
     Starting wfcs are   59 randomized atomic wfcs

     Self-consistent Calculation

[...]

     total energy              =    -587.09589334 Ry
     Harris-Foulkes estimate   =    -587.09589334 Ry
     estimated scf accuracy    <          1.0E-12 Ry

     iteration # 35     ecut=    50.00 Ry     beta= 0.60
     Davidson diagonalization with overlap
     ethr =  1.00E-13,  avg # of iterations =  1.0

     End of self-consistent calculation

     Number of k-points >= 100: set verbosity='high' to print the bands.

     the Fermi energy is    16.1402 ev

!    total energy              =    -587.09589334 Ry
     Harris-Foulkes estimate   =    -587.09589334 Ry
     estimated scf accuracy    <          3.1E-13 Ry

     The total energy is the sum of the following terms:

     one-electron contribution =    -130.55373367 Ry
     hartree contribution      =      93.66060641 Ry
     xc contribution           =     -84.40610023 Ry
     ewald contribution        =    -465.79686746 Ry
     smearing contrib. (-TS)   =       0.00020161 Ry

     convergence has been achieved in  35 iterations

     Forces acting on atoms (cartesian axes, Ry/au):

     atom    1 type  2   force =     0.00000723   -0.00000723   -0.00000723
     atom    2 type  1   force =     0.00000000    0.00000000    0.00000000
     atom    3 type  2   force =    -0.00000723    0.00000723    0.00000723
     atom    4 type  1   force =     0.00000271   -0.00000271   -0.00000271
     atom    5 type  1   force =    -0.00000271    0.00000271    0.00000271

     Total force =     0.000019     Total SCF correction =     0.000001

     Computing stress (Cartesian axis) and pressure

          total   stress  (Ry/bohr**3)                   (kbar)     P=   -1.05
  -0.00000716  -0.00000014  -0.00000014         -1.05     -0.02     -0.02
  -0.00000014  -0.00000716   0.00000014         -0.02     -1.05      0.02
  -0.00000014   0.00000014  -0.00000716         -0.02      0.02     -1.05

     General routines

     Parallel routines

      11h

   This run was terminated on:  13:26: 1  25Feb2020

   JOB DONE.