     Program PWSCF v.6.3MaX starts on  1Feb2020 at 12: 5:44

     R & G space division:  proc/nbgrp/npool/nimage =       4
     Waiting for input...
     Reading input from standard input

     Current dimensions of program PWSCF are:
     Max number of different atomic species (ntypx) = 10
     Max number of k-points (npk) =  40000
     Max angular momentum in pseudopotentials (lmaxx) =  3
     Message from routine iosys:
     minimal I/O required, wf_collect reset to FALSE

     Subspace diagonalization in iterative solution of the eigenvalue problem:
     a serial algorithm will be used

     bravais-lattice index     =            0
     lattice parameter (alat)  =       1.8897  a.u.
     unit-cell volume          =    1077.7903 (a.u.)^3
     number of atoms/cell      =            8
     number of atomic types    =            2
     number of electrons       =       103.00
     number of Kohn-Sham states=           62
     kinetic-energy cutoff     =      40.0000  Ry
     charge density cutoff     =     400.0000  Ry
     convergence threshold     =      1.0E-10
     mixing beta               =       0.6000
     number of iterations used =            8  plain     mixing
     Exchange-correlation      = SLA PW PBE PBE ( 1  4  3  4 0 0)
     nstep                     =           50

     celldm(1)=   1.889726  celldm(2)=   0.000000  celldm(3)=   0.000000
     celldm(4)=   0.000000  celldm(5)=   0.000000  celldm(6)=   0.000000

     crystal axes: (cart. coord. in units of alat)
               a(1) = (  -1.522502   2.637051   4.972461 )
               a(2) = (  -1.522502   2.637051  -4.972461 )
               a(3) = (  -4.567506  -2.637051   0.000000 )

     reciprocal axes: (cart. coord. in units 2 pi/alat)
               b(1) = ( -0.082102  0.142204  0.100554 )
               b(2) = ( -0.082102  0.142204 -0.100554 )
               b(3) = ( -0.164203 -0.094803  0.000000 )

     PseudoPot. # 1 for Nb read from file:
     ./Nb.pbe-nsp-van.UPF
     MD5 check sum: 0a22fc7fb0ba19a08ca5db297a5d2854
     Pseudo is Ultrasoft + core correction, Zval = 13.0
     Generated by new atomic code, or converted to UPF format
     Using radial grid of  887 points,  6 beta functions with:
                l(1) =   0
                l(2) =   0
                l(3) =   1
                l(4) =   1
                l(5) =   2
                l(6) =   2
     Q(r) pseudized with  6 coefficients,  rinner =    1.000   1.000   1.000
                                                       1.000   1.000

     PseudoPot. # 2 for Ti read from file:
     ./Ti.pbe-sp-van_ak.UPF
     MD5 check sum: f98fea3e8887528921fefa5636a534ca
     Pseudo is Ultrasoft, Zval = 12.0
     Generated by new atomic code, or converted to UPF format
     Using radial grid of  851 points,  6 beta functions with:
                l(1) =   0
                l(2) =   0
                l(3) =   1
                l(4) =   1
                l(5) =   2
                l(6) =   2
     Q(r) pseudized with  8 coefficients,  rinner =    1.000   1.000   1.000
                                                       1.000   1.000

     atomic species   valence    mass     pseudopotential
        Nb            13.00    92.90638     Nb( 1.00)
        Ti            12.00    47.86700     Ti( 1.00)

      4 Sym. Ops. (no inversion) found

   Cartesian axes

     site n.     atom                  positions (alat units)
         1           Ti  tau(   1) = (  -7.6125106   2.6370512   0.0000000  )
         2           Nb  tau(   2) = (  -3.0450027   3.5160674  -2.4862307  )
         3           Nb  tau(   3) = (  -4.5675063   2.6370512   0.0000000  )
         4           Nb  tau(   4) = (  -4.5675048   0.8790162  -2.4862307  )
         5           Nb  tau(   5) = (  -6.0900085   0.0000000   0.0000000  )
         6           Nb  tau(   6) = (  -3.0450027   3.5160674   2.4862307  )
         7           Nb  tau(   7) = (  -3.0450042   0.0000000   0.0000000  )
         8           Nb  tau(   8) = (  -4.5675048   0.8790162   2.4862307  )

     number of k points=   186  Marzari-Vanderbilt smearing, width (Ry)=  0.0200

     Number of k-points >= 100: set verbosity='high' to print them.

     Check: negative/imaginary core charge=   -0.000001    0.000000

     Initial potential from superposition of free atoms

     starting charge  101.98082, renormalised to  103.00000
     Starting wfcs are  101 randomized atomic wfcs

     Self-consistent Calculation

     iteration #  1     ecut=    40.00 Ry     beta= 0.60
     Davidson diagonalization with overlap
     ethr =  1.00E-02,  avg # of iterations =  2.0

     total energy              =    -919.16765658 Ry
     Harris-Foulkes estimate   =    -944.63228111 Ry
     estimated scf accuracy    <      31.85647216 Ry

[...]

     End of self-consistent calculation

     Number of k-points >= 100: set verbosity='high' to print the bands.

     the Fermi energy is    15.6984 ev

!    total energy              =    -941.96941169 Ry
     Harris-Foulkes estimate   =    -941.96941169 Ry
     estimated scf accuracy    <          6.3E-11 Ry

     The total energy is the sum of the following terms:

     one-electron contribution =    -191.78133110 Ry
     hartree contribution      =     139.89978564 Ry
     xc contribution           =    -142.75502347 Ry
     ewald contribution        =    -747.33135165 Ry
     smearing contrib. (-TS)   =      -0.00149111 Ry

     convergence has been achieved in  25 iterations

     Forces acting on atoms (cartesian axes, Ry/au):

     atom    1 type  2   force =     0.00002199    0.00001270    0.00000000
     atom    2 type  1   force =     0.00131045    0.00075659    0.00000000
     atom    3 type  1   force =    -0.00055500    0.00439682    0.00000000
     atom    4 type  1   force =    -0.00126886   -0.00073258   -0.00702496
     atom    5 type  1   force =    -0.00308044   -0.00177849    0.00000000
     atom    6 type  1   force =     0.00131045    0.00075659    0.00000000
     atom    7 type  1   force =     0.00353026   -0.00267905    0.00000000
     atom    8 type  1   force =    -0.00126886   -0.00073258    0.00702496

     Total force =     0.012630     Total SCF correction =     0.000037

     Computing stress (Cartesian axis) and pressure

          total   stress  (Ry/bohr**3)                   (kbar)     P= -108.34
  -0.00088946   0.00000014   0.00000000       -130.84      0.02      0.00
   0.00000014  -0.00088962   0.00000000          0.02   -130.87      0.00
   0.00000000   0.00000000  -0.00043045          0.00      0.00    -63.32

     BFGS Geometry Optimization

     number of scf cycles    =   1
     number of bfgs steps    =   0

     enthalpy new            =    -941.9694116906 Ry

     new trust radius        =       0.1460296206 bohr
     new conv_thr            =            1.0E-10 Ry

     new unit-cell volume =   1019.29830 a.u.^3 (   151.04442 Ang^3 )
     density =      7.67594 g/cm^3

CELL_PARAMETERS (alat=  1.88972599)
  -1.488637783   2.578396460   4.918950998
  -1.488637783   2.578396460  -4.918950998
  -4.465950104  -2.578417680  -0.000000000

ATOMIC_POSITIONS (angstrom)
Ti      -7.443214294   2.578381809  -0.000000000
Nb      -2.976602160   3.438249019  -2.459475499
Nb      -4.466218880   2.580660802  -0.000000000
Nb      -4.466592886   0.859071437  -2.463152945
Nb      -5.956181743  -0.000941433  -0.000000000
Nb      -2.976602160   3.438249019   2.459475499
Nb      -2.975467355  -0.001396767  -0.000000000
Nb      -4.466592886   0.859071437   2.463152945

     NEW-OLD atomic charge density approx. for the potential

     Check: negative/imaginary core charge=   -0.000001    0.000000
     extrapolated charge   97.14787, renormalised to  103.00000

[...]

     iteration #  1     ecut=    40.00 Ry     beta= 0.60
     Davidson diagonalization with overlap
     c_bands:  1 eigenvalues not converged
     c_bands:  1 eigenvalues not converged
     c_bands:  1 eigenvalues not converged
     c_bands:  1 eigenvalues not converged
     c_bands:  1 eigenvalues not converged
     c_bands:  1 eigenvalues not converged
     c_bands:  1 eigenvalues not converged
     c_bands:  1 eigenvalues not converged
     c_bands:  1 eigenvalues not converged
     c_bands:  1 eigenvalues not converged
     c_bands:  1 eigenvalues not converged
     c_bands:  1 eigenvalues not converged
     c_bands:  1 eigenvalues not converged
     c_bands:  1 eigenvalues not converged
     c_bands:  1 eigenvalues not converged
     c_bands:  1 eigenvalues not converged
     c_bands:  2 eigenvalues not converged
     c_bands:  2 eigenvalues not converged
     c_bands:  1 eigenvalues not converged
     c_bands:  1 eigenvalues not converged
     c_bands:  1 eigenvalues not converged
     c_bands:  1 eigenvalues not converged
     c_bands:  1 eigenvalues not converged
     c_bands:  1 eigenvalues not converged
     c_bands:  1 eigenvalues not converged
     c_bands:  1 eigenvalues not converged
     c_bands:  1 eigenvalues not converged
     c_bands:  2 eigenvalues not converged
     c_bands:  1 eigenvalues not converged
     c_bands:  1 eigenvalues not converged
     c_bands:  1 eigenvalues not converged
     c_bands:  1 eigenvalues not converged
     c_bands:  1 eigenvalues not converged
     c_bands:  1 eigenvalues not converged
     c_bands:  1 eigenvalues not converged
     ethr =  1.00E-06,  avg # of iterations = 14.5

[...]

     enthalpy old            =    -941.9694116906 Ry
     enthalpy new            =    -942.0031130251 Ry

     CASE: enthalpy_new < enthalpy_old

[...]

     NEW-OLD atomic charge density approx. for the potential
     extrapolated charge  104.18283, renormalised to  103.00000

[...]

     NEW-OLD atomic charge density approx. for the potential

     Check: negative/imaginary core charge=   -0.000001    0.000000
     extrapolated charge  102.45544, renormalised to  103.00000

[...]

     Threshold (ethr) on eigenvalues was too large:
     Diagonalizing with lowered threshold

     Davidson diagonalization with overlap
     ethr =  2.21E-08,  avg # of iterations =  2.4

[...]

     Total force =     0.000052     Total SCF correction =     0.000007
     SCF correction compared to forces is large: reduce conv_thr to get better values

[...]

     small trust_radius: resetting bfgs history

[...]

     number of scf cycles    =  39
     number of bfgs steps    =  38

     enthalpy old            =    -942.0800435512 Ry
     enthalpy new            =    -942.0800435517 Ry

     CASE: enthalpy_new < enthalpy_old

     Message from routine bfgs:
     history already reset at previous step: stopping
     small trust_radius: resetting bfgs history

     new trust radius        =       0.0000075924 bohr
     new conv_thr            =            1.0E-12 Ry

     new unit-cell volume =    988.37113 a.u.^3 (   146.46149 Ang^3 )
     density =      7.91613 g/cm^3

[...]

ATOMIC_POSITIONS (angstrom)
Ti      -7.372847846   1.872948446  -0.000000000
Nb      -2.943437162   2.897852437  -2.483211525
Nb      -4.234520110   2.156539133  -0.000000000
Nb      -4.702045401   0.350103334  -2.541274889
Nb      -5.920643261  -0.353453005  -0.000000000
Nb      -2.943437162   2.897852437   2.483211525
Nb      -2.903864893  -0.148223509  -0.000000000
Nb      -4.702045401   0.350103334   2.541274889

     NEW-OLD atomic charge density approx. for the potential
     extrapolated charge  103.00011, renormalised to  103.00000

[...]

     Threshold (ethr) on eigenvalues was too large:
     Diagonalizing with lowered threshold

     Davidson diagonalization with overlap
     ethr =  4.31E-13,  avg # of iterations =  4.0

[...]

     Total force =     0.000010     Total SCF correction =     0.000002
     SCF correction compared to forces is large: reduce conv_thr to get better values

[...]

     bfgs converged in  40 scf cycles and  39 bfgs steps
     (criteria: energy <  1.0E-10 Ry, force <  1.0E-05Ry/Bohr, cell <  1.0E-03kbar)

     End of BFGS Geometry Optimization

     Final enthalpy =    -942.0800435519 Ry
Begin final coordinates
     new unit-cell volume =    988.37113 a.u.^3 (   146.46149 Ang^3 )
     density =      7.91613 g/cm^3

CELL_PARAMETERS (alat=  1.88972599)
  -1.327111166   2.298624166   4.966423049
  -1.327111166   2.298624166  -4.966423049
  -4.811086166  -2.777682065  -0.000000000

ATOMIC_POSITIONS (angstrom)
Ti      -7.372847846   1.872948446  -0.000000000
Nb      -2.943437162   2.897852437  -2.483211525
Nb      -4.234520110   2.156539133  -0.000000000
Nb      -4.702045401   0.350103334  -2.541274889
Nb      -5.920643261  -0.353453005  -0.000000000
Nb      -2.943437162   2.897852437   2.483211525
Nb      -2.903864893  -0.148223509  -0.000000000
Nb      -4.702045401   0.350103334   2.541274889
End final coordinates

     A final scf calculation at the relaxed structure.
     The G-vectors are recalculated for the final unit cell
     Results may differ from those at the preceding step.

     bravais-lattice index     =            0
     lattice parameter (alat)  =       1.8897  a.u.
     unit-cell volume          =     988.3711 (a.u.)^3
     number of atoms/cell      =            8
     number of atomic types    =            2
     number of electrons       =       103.00
     number of Kohn-Sham states=           62
     kinetic-energy cutoff     =      40.0000  Ry
     charge density cutoff     =     400.0000  Ry
     convergence threshold     =      1.0E-12
     mixing beta               =       0.6000
     number of iterations used =            8  plain     mixing
     Exchange-correlation      = SLA PW PBE PBE ( 1  4  3  4 0 0)

     celldm(1)=   1.889726  celldm(2)=   0.000000  celldm(3)=   0.000000
     celldm(4)=   0.000000  celldm(5)=   0.000000  celldm(6)=   0.000000

     crystal axes: (cart. coord. in units of alat)
               a(1) = (  -1.327111   2.298624   4.966423 )
               a(2) = (  -1.327111   2.298624  -4.966423 )
               a(3) = (  -4.811086  -2.777682  -0.000000 )

     reciprocal axes: (cart. coord. in units 2 pi/alat)
               b(1) = ( -0.094190  0.163141  0.100676 )
               b(2) = ( -0.094190  0.163141 -0.100676 )
               b(3) = ( -0.155890 -0.090003 -0.000000 )

     PseudoPot. # 1 for Nb read from file:
     ./Nb.pbe-nsp-van.UPF
     MD5 check sum: 0a22fc7fb0ba19a08ca5db297a5d2854
     Pseudo is Ultrasoft + core correction, Zval = 13.0
     Generated by new atomic code, or converted to UPF format
     Using radial grid of  887 points,  6 beta functions with:
                l(1) =   0
                l(2) =   0
                l(3) =   1
                l(4) =   1
                l(5) =   2
                l(6) =   2
     Q(r) pseudized with  6 coefficients,  rinner =    1.000   1.000   1.000
                                                       1.000   1.000

     PseudoPot. # 2 for Ti read from file:
     ./Ti.pbe-sp-van_ak.UPF
     MD5 check sum: f98fea3e8887528921fefa5636a534ca
     Pseudo is Ultrasoft, Zval = 12.0
     Generated by new atomic code, or converted to UPF format
     Using radial grid of  851 points,  6 beta functions with:
                l(1) =   0
                l(2) =   0
                l(3) =   1
                l(4) =   1
                l(5) =   2
                l(6) =   2
     Q(r) pseudized with  8 coefficients,  rinner =    1.000   1.000   1.000
                                                       1.000   1.000

     atomic species   valence    mass     pseudopotential
        Nb            13.00    92.90638     Nb( 1.00)
        Ti            12.00    47.86700     Ti( 1.00)

      4 Sym. Ops. (no inversion) found

   Cartesian axes

     site n.     atom                  positions (alat units)
         1           Ti  tau(   1) = (  -7.3728484   1.8729486  -0.0000000  )
         2           Nb  tau(   2) = (  -2.9434374   2.8978527  -2.4832117  )
         3           Nb  tau(   3) = (  -4.2345204   2.1565393  -0.0000000  )
         4           Nb  tau(   4) = (  -4.7020458   0.3501034  -2.5412751  )
         5           Nb  tau(   5) = (  -5.9206437  -0.3534530  -0.0000000  )
         6           Nb  tau(   6) = (  -2.9434374   2.8978527   2.4832117  )
         7           Nb  tau(   7) = (  -2.9038651  -0.1482235  -0.0000000  )
         8           Nb  tau(   8) = (  -4.7020458   0.3501034   2.5412751  )

     number of k points=   186  Marzari-Vanderbilt smearing, width (Ry)=  0.0200

     Number of k-points >= 100: set verbosity='high' to print them.

     Check: negative/imaginary core charge=   -0.000001    0.000000

     Initial potential from superposition of free atoms

     starting charge  101.98082, renormalised to  103.00000
     Starting wfcs are  101 randomized atomic wfcs

     Self-consistent Calculation

[...]

     iteration # 14     ecut=    40.00 Ry     beta= 0.60
     Davidson diagonalization with overlap
     c_bands:  1 eigenvalues not converged
     ethr =  1.32E-06,  avg # of iterations =  7.3

[...]

     total energy              =    -942.07843440 Ry
     Harris-Foulkes estimate   =    -942.07843440 Ry
     estimated scf accuracy    <          5.1E-11 Ry

     iteration # 25     ecut=    40.00 Ry     beta= 0.60
     Davidson diagonalization with overlap
     ethr =  1.00E-13,  avg # of iterations =  3.1

     End of self-consistent calculation

     Number of k-points >= 100: set verbosity='high' to print the bands.

     the Fermi energy is    17.1712 ev

!    total energy              =    -942.07843440 Ry
     Harris-Foulkes estimate   =    -942.07843440 Ry
     estimated scf accuracy    <          6.8E-13 Ry

     The total energy is the sum of the following terms:

     one-electron contribution =    -164.25978551 Ry
     hartree contribution      =     132.94011578 Ry
     xc contribution           =    -143.55582365 Ry
     ewald contribution        =    -767.20416286 Ry
     smearing contrib. (-TS)   =       0.00122184 Ry

     convergence has been achieved in  25 iterations

     Forces acting on atoms (cartesian axes, Ry/au):

     atom    1 type  2   force =     0.00005189    0.00002996    0.00000000
     atom    2 type  1   force =    -0.00000522   -0.00000301   -0.00000000
     atom    3 type  1   force =    -0.00003025    0.00000361    0.00000000
     atom    4 type  1   force =    -0.00000598   -0.00000345    0.00002039
     atom    5 type  1   force =     0.00001277    0.00000737    0.00000000
     atom    6 type  1   force =    -0.00000522   -0.00000301   -0.00000000
     atom    7 type  1   force =    -0.00001200   -0.00002800   -0.00000000
     atom    8 type  1   force =    -0.00000598   -0.00000345   -0.00002039

     Total force =     0.000082     Total SCF correction =     0.000002

     Computing stress (Cartesian axis) and pressure

          total   stress  (Ry/bohr**3)                   (kbar)     P=   -0.05
   0.00000082   0.00000317   0.00000000          0.12      0.47      0.00
   0.00000317  -0.00000284   0.00000000          0.47     -0.42      0.00
   0.00000000   0.00000000   0.00000109          0.00      0.00      0.16

     General routines

     Parallel routines

      51h

   This run was terminated on:  19:57:42   1Feb2020

   JOB DONE.