     Program PWSCF v.6.3MaX starts on 14Feb2020 at 10:14:17

     R & G space division:  proc/nbgrp/npool/nimage =       4
     Waiting for input...
     Reading input from standard input

     Current dimensions of program PWSCF are:
     Max number of different atomic species (ntypx) = 10
     Max number of k-points (npk) =  40000
     Max angular momentum in pseudopotentials (lmaxx) =  3
     Message from routine iosys:
     minimal I/O required, wf_collect reset to FALSE

     Subspace diagonalization in iterative solution of the eigenvalue problem:
     a serial algorithm will be used

     bravais-lattice index     =            0
     lattice parameter (alat)  =       1.8897  a.u.
     unit-cell volume          =     808.3427 (a.u.)^3
     number of atoms/cell      =            6
     number of atomic types    =            2
     number of electrons       =        76.00
     number of Kohn-Sham states=           46
     kinetic-energy cutoff     =      40.0000  Ry
     charge density cutoff     =     400.0000  Ry
     convergence threshold     =      1.0E-10
     mixing beta               =       0.6000
     number of iterations used =            8  plain     mixing
     Exchange-correlation      = SLA PW PBE PBE ( 1  4  3  4 0 0)
     nstep                     =           50

     celldm(1)=   1.889726  celldm(2)=   0.000000  celldm(3)=   0.000000
     celldm(4)=   0.000000  celldm(5)=   0.000000  celldm(6)=   0.000000

     crystal axes: (cart. coord. in units of alat)
               a(1) = (   4.567506  -2.637051   0.000000 )
               a(2) = (  -4.567506  -2.637051   0.000000 )
               a(3) = (   0.000000   0.000000  -4.972461 )

     reciprocal axes: (cart. coord. in units 2 pi/alat)
               b(1) = (  0.109469 -0.189606  0.000000 )
               b(2) = ( -0.109469 -0.189606  0.000000 )
               b(3) = (  0.000000  0.000000 -0.201108 )

     PseudoPot. # 1 for Nb read from file:
     ./Nb.pbe-nsp-van.UPF
     MD5 check sum: 0a22fc7fb0ba19a08ca5db297a5d2854
     Pseudo is Ultrasoft + core correction, Zval = 13.0
     Generated by new atomic code, or converted to UPF format
     Using radial grid of  887 points,  6 beta functions with:
                l(1) =   0
                l(2) =   0
                l(3) =   1
                l(4) =   1
                l(5) =   2
                l(6) =   2
     Q(r) pseudized with  6 coefficients,  rinner =    1.000   1.000   1.000
                                                       1.000   1.000

     PseudoPot. # 2 for Ti read from file:
     ./Ti.pbe-sp-van_ak.UPF
     MD5 check sum: f98fea3e8887528921fefa5636a534ca
     Pseudo is Ultrasoft, Zval = 12.0
     Generated by new atomic code, or converted to UPF format
     Using radial grid of  851 points,  6 beta functions with:
                l(1) =   0
                l(2) =   0
                l(3) =   1
                l(4) =   1
                l(5) =   2
                l(6) =   2
     Q(r) pseudized with  8 coefficients,  rinner =    1.000   1.000   1.000
                                                       1.000   1.000

     atomic species   valence    mass     pseudopotential
        Nb            13.00    92.90638     Nb( 1.00)
        Ti            12.00    47.86700     Ti( 1.00)

      6 Sym. Ops. (no inversion) found
          (note:  6 additional sym.ops. were found but ignored
           their fractional translations are incommensurate with FFT grid)

   Cartesian axes

     site n.     atom                  positions (alat units)
         1           Ti  tau(   1) = (   0.0000000  -5.2741024  -4.9724614  )
         2           Nb  tau(   2) = (   0.0000015  -1.7580350  -2.4862307  )
         3           Ti  tau(   3) = (  -1.5225021  -2.6370512  -4.9724614  )
         4           Nb  tau(   4) = (  -1.5225006  -4.3950862  -2.4862307  )
         5           Nb  tau(   5) = (   1.5225021  -2.6370512  -4.9724614  )
         6           Nb  tau(   6) = (   1.5225036  -4.3950862  -2.4862307  )

     number of k points=   147  Marzari-Vanderbilt smearing, width (Ry)=  0.0200

     Number of k-points >= 100: set verbosity='high' to print them.

     Initial potential from superposition of free atoms

     starting charge   73.98898, renormalised to   76.00000
     Starting wfcs are   72 randomized atomic wfcs

     Self-consistent Calculation

     iteration #  1     ecut=    40.00 Ry     beta= 0.60
     Davidson diagonalization with overlap
     ethr =  1.00E-02,  avg # of iterations =  2.2

     total energy              =    -671.39804371 Ry
     Harris-Foulkes estimate   =    -708.14256285 Ry
     estimated scf accuracy    <      46.02661128 Ry

[...]

     End of self-consistent calculation

     Number of k-points >= 100: set verbosity='high' to print the bands.

     the Fermi energy is    14.6563 ev

!    total energy              =    -704.90654705 Ry
     Harris-Foulkes estimate   =    -704.90654705 Ry
     estimated scf accuracy    <          2.2E-11 Ry

     The total energy is the sum of the following terms:

     one-electron contribution =    -177.56716736 Ry
     hartree contribution      =     117.49935444 Ry
     xc contribution           =    -102.15945237 Ry
     ewald contribution        =    -542.67544510 Ry
     smearing contrib. (-TS)   =      -0.00383666 Ry

     convergence has been achieved in  30 iterations

     Forces acting on atoms (cartesian axes, Ry/au):

     atom    1 type  2   force =     0.00000000    0.00000000    0.00000000
     atom    2 type  1   force =    -0.00053222    0.00030722    0.00000000
     atom    3 type  2   force =     0.00000000    0.00000000    0.00000000
     atom    4 type  1   force =     0.00053218    0.00030731    0.00000000
     atom    5 type  1   force =     0.00000000    0.00000000    0.00000000
     atom    6 type  1   force =     0.00000005   -0.00061453    0.00000000

     Total force =     0.001064     Total SCF correction =     0.000004

     Computing stress (Cartesian axis) and pressure

          total   stress  (Ry/bohr**3)                   (kbar)     P= -119.74
  -0.00090269   0.00000000   0.00000000       -132.79      0.00      0.00
   0.00000000  -0.00090269   0.00000000          0.00   -132.79      0.00
   0.00000000   0.00000000  -0.00063651          0.00      0.00    -93.63

     BFGS Geometry Optimization

     number of scf cycles    =   1
     number of bfgs steps    =   0

     enthalpy new            =    -704.9065470526 Ry

     new trust radius        =       0.1283238090 bohr
     new conv_thr            =            1.0E-10 Ry

     new unit-cell volume =    759.98128 a.u.^3 (   112.61760 Ang^3 )
     density =      6.89118 g/cm^3

CELL_PARAMETERS (alat=  1.88972599)
   4.464429751  -2.577539904   0.000000000
  -4.464429751  -2.577539904   0.000000000
  -0.000000000  -0.000000000  -4.893335558

ATOMIC_POSITIONS (angstrom)
Ti      -0.000000000  -5.155079808  -4.893335558
Nb      -0.000273797  -1.718201888  -2.446667779
Ti      -1.488143250  -2.577539904  -4.893335558
Nb      -1.487866502  -4.295741749  -2.446667779
Nb       1.488143250  -2.577539904  -4.893335558
Nb       1.488144764  -4.296218557  -2.446667779

     NEW-OLD atomic charge density approx. for the potential

     Check: negative/imaginary core charge=   -0.000001    0.000000
     extrapolated charge   71.29171, renormalised to   76.00000

[...]

     iteration #  1     ecut=    40.00 Ry     beta= 0.60
     Davidson diagonalization with overlap
     c_bands:  1 eigenvalues not converged
     c_bands:  1 eigenvalues not converged
     c_bands:  1 eigenvalues not converged
     c_bands:  3 eigenvalues not converged
     c_bands:  3 eigenvalues not converged
     c_bands:  2 eigenvalues not converged
     c_bands:  1 eigenvalues not converged
     c_bands:  1 eigenvalues not converged
     c_bands:  1 eigenvalues not converged
     c_bands:  2 eigenvalues not converged
     c_bands:  1 eigenvalues not converged
     c_bands:  1 eigenvalues not converged
     c_bands:  2 eigenvalues not converged
     c_bands:  1 eigenvalues not converged
     c_bands:  2 eigenvalues not converged
     c_bands:  1 eigenvalues not converged
     c_bands:  1 eigenvalues not converged
     c_bands:  1 eigenvalues not converged
     c_bands:  1 eigenvalues not converged
     c_bands:  1 eigenvalues not converged
     c_bands:  1 eigenvalues not converged
     c_bands:  1 eigenvalues not converged
     c_bands:  2 eigenvalues not converged
     c_bands:  1 eigenvalues not converged
     c_bands:  1 eigenvalues not converged
     c_bands:  1 eigenvalues not converged
     c_bands:  2 eigenvalues not converged
     c_bands:  1 eigenvalues not converged
     c_bands:  1 eigenvalues not converged
     c_bands:  1 eigenvalues not converged
     c_bands:  1 eigenvalues not converged
     c_bands:  1 eigenvalues not converged
     c_bands:  1 eigenvalues not converged
     c_bands:  1 eigenvalues not converged
     ethr =  1.00E-06,  avg # of iterations = 15.8

[...]

     enthalpy old            =    -704.9065470526 Ry
     enthalpy new            =    -704.9358399501 Ry

     CASE: enthalpy_new < enthalpy_old

[...]

     iteration #  2     ecut=    40.00 Ry     beta= 0.60
     Davidson diagonalization with overlap
     c_bands:  1 eigenvalues not converged
     c_bands:  1 eigenvalues not converged
     c_bands:  1 eigenvalues not converged
     c_bands:  1 eigenvalues not converged
     c_bands:  1 eigenvalues not converged
     ethr =  3.12E-06,  avg # of iterations =  8.7

[...]

     WARNING: bfgs curvature condition failed, Theta= 0.963
     new trust radius        =       0.0417496040 bohr
     new conv_thr            =            1.0E-10 Ry

[...]

     Threshold (ethr) on eigenvalues was too large:
     Diagonalizing with lowered threshold

     Davidson diagonalization with overlap
     ethr =  3.06E-08,  avg # of iterations =  2.7

[...]

     small trust_radius: resetting bfgs history

[...]

     number of scf cycles    =  13
     number of bfgs steps    =  12

     enthalpy old            =    -704.9458450161 Ry
     enthalpy new            =    -704.9458450162 Ry

     CASE: enthalpy_new < enthalpy_old

     Message from routine bfgs:
     history already reset at previous step: stopping
     small trust_radius: resetting bfgs history

     new trust radius        =       0.0000049321 bohr
     new conv_thr            =            1.0E-12 Ry

     new unit-cell volume =    732.50742 a.u.^3 (   108.54640 Ang^3 )
     density =      7.14965 g/cm^3

[...]

ATOMIC_POSITIONS (angstrom)
Ti       0.000000000  -4.979562903  -5.054782521
Nb      -0.007287367  -1.655645751  -2.527391260
Ti      -1.437475880  -2.489781452  -5.054782521
Nb      -1.430184610  -4.145428983  -2.527391260
Nb       1.437475880  -2.489781452  -5.054782521
Nb       1.437476291  -4.158053562  -2.527391260

     NEW-OLD atomic charge density approx. for the potential

     Check: negative/imaginary core charge=   -0.000001    0.000000
     extrapolated charge   75.99996, renormalised to   76.00000

[...]

     Threshold (ethr) on eigenvalues was too large:
     Diagonalizing with lowered threshold

     Davidson diagonalization with overlap
     ethr =  1.81E-13,  avg # of iterations =  4.1

[...]

     bfgs converged in  14 scf cycles and  13 bfgs steps
     (criteria: energy <  1.0E-10 Ry, force <  1.0E-05Ry/Bohr, cell <  1.0E-03kbar)

     End of BFGS Geometry Optimization

     Final enthalpy =    -704.9458450163 Ry
Begin final coordinates
     new unit-cell volume =    732.50742 a.u.^3 (   108.54640 Ang^3 )
     density =      7.14965 g/cm^3

CELL_PARAMETERS (alat=  1.88972599)
   4.312427641  -2.489781452   0.000000000
  -4.312427641  -2.489781452   0.000000000
  -0.000000000  -0.000000000  -5.054782521

ATOMIC_POSITIONS (angstrom)
Ti       0.000000000  -4.979562903  -5.054782521
Nb      -0.007287367  -1.655645751  -2.527391260
Ti      -1.437475880  -2.489781452  -5.054782521
Nb      -1.430184610  -4.145428983  -2.527391260
Nb       1.437475880  -2.489781452  -5.054782521
Nb       1.437476291  -4.158053562  -2.527391260
End final coordinates

     A final scf calculation at the relaxed structure.
     The G-vectors are recalculated for the final unit cell
     Results may differ from those at the preceding step.

     bravais-lattice index     =            0
     lattice parameter (alat)  =       1.8897  a.u.
     unit-cell volume          =     732.5074 (a.u.)^3
     number of atoms/cell      =            6
     number of atomic types    =            2
     number of electrons       =        76.00
     number of Kohn-Sham states=           46
     kinetic-energy cutoff     =      40.0000  Ry
     charge density cutoff     =     400.0000  Ry
     convergence threshold     =      1.0E-12
     mixing beta               =       0.6000
     number of iterations used =            8  plain     mixing
     Exchange-correlation      = SLA PW PBE PBE ( 1  4  3  4 0 0)

     celldm(1)=   1.889726  celldm(2)=   0.000000  celldm(3)=   0.000000
     celldm(4)=   0.000000  celldm(5)=   0.000000  celldm(6)=   0.000000

     crystal axes: (cart. coord. in units of alat)
               a(1) = (   4.312428  -2.489781   0.000000 )
               a(2) = (  -4.312428  -2.489781   0.000000 )
               a(3) = (  -0.000000  -0.000000  -5.054783 )

     reciprocal axes: (cart. coord. in units 2 pi/alat)
               b(1) = (  0.115944 -0.200821  0.000000 )
               b(2) = ( -0.115944 -0.200821  0.000000 )
               b(3) = (  0.000000 -0.000000 -0.197832 )

     PseudoPot. # 1 for Nb read from file:
     ./Nb.pbe-nsp-van.UPF
     MD5 check sum: 0a22fc7fb0ba19a08ca5db297a5d2854
     Pseudo is Ultrasoft + core correction, Zval = 13.0
     Generated by new atomic code, or converted to UPF format
     Using radial grid of  887 points,  6 beta functions with:
                l(1) =   0
                l(2) =   0
                l(3) =   1
                l(4) =   1
                l(5) =   2
                l(6) =   2
     Q(r) pseudized with  6 coefficients,  rinner =    1.000   1.000   1.000
                                                       1.000   1.000

     PseudoPot. # 2 for Ti read from file:
     ./Ti.pbe-sp-van_ak.UPF
     MD5 check sum: f98fea3e8887528921fefa5636a534ca
     Pseudo is Ultrasoft, Zval = 12.0
     Generated by new atomic code, or converted to UPF format
     Using radial grid of  851 points,  6 beta functions with:
                l(1) =   0
                l(2) =   0
                l(3) =   1
                l(4) =   1
                l(5) =   2
                l(6) =   2
     Q(r) pseudized with  8 coefficients,  rinner =    1.000   1.000   1.000
                                                       1.000   1.000

     atomic species   valence    mass     pseudopotential
        Nb            13.00    92.90638     Nb( 1.00)
        Ti            12.00    47.86700     Ti( 1.00)

      6 Sym. Ops. (no inversion) found
          (note:  6 additional sym.ops. were found but ignored
           their fractional translations are incommensurate with FFT grid)

   Cartesian axes

     site n.     atom                  positions (alat units)
         1           Ti  tau(   1) = (   0.0000000  -4.9795633  -5.0547829  )
         2           Nb  tau(   2) = (  -0.0072874  -1.6556459  -2.5273915  )
         3           Ti  tau(   3) = (  -1.4374760  -2.4897816  -5.0547829  )
         4           Nb  tau(   4) = (  -1.4301847  -4.1454293  -2.5273915  )
         5           Nb  tau(   5) = (   1.4374760  -2.4897816  -5.0547829  )
         6           Nb  tau(   6) = (   1.4374764  -4.1580539  -2.5273915  )

     number of k points=   147  Marzari-Vanderbilt smearing, width (Ry)=  0.0200

     Number of k-points >= 100: set verbosity='high' to print them.

     Check: negative/imaginary core charge=   -0.000001    0.000000

     Initial potential from superposition of free atoms

     starting charge   73.98898, renormalised to   76.00000
     Starting wfcs are   72 randomized atomic wfcs

     Self-consistent Calculation

[...]

     total energy              =    -704.94348401 Ry
     Harris-Foulkes estimate   =    -704.94348401 Ry
     estimated scf accuracy    <          2.0E-12 Ry

     iteration # 30     ecut=    40.00 Ry     beta= 0.60
     Davidson diagonalization with overlap
     ethr =  1.00E-13,  avg # of iterations =  1.0

     End of self-consistent calculation

     Number of k-points >= 100: set verbosity='high' to print the bands.

     the Fermi energy is    16.4011 ev

!    total energy              =    -704.94348401 Ry
     Harris-Foulkes estimate   =    -704.94348401 Ry
     estimated scf accuracy    <          1.5E-13 Ry

     The total energy is the sum of the following terms:

     one-electron contribution =    -152.31750466 Ry
     hartree contribution      =     110.45736206 Ry
     xc contribution           =    -102.74701673 Ry
     ewald contribution        =    -560.33367062 Ry
     smearing contrib. (-TS)   =      -0.00265406 Ry

     convergence has been achieved in  30 iterations

     Forces acting on atoms (cartesian axes, Ry/au):

     atom    1 type  2   force =     0.00000000    0.00000000    0.00000000
     atom    2 type  1   force =    -0.00000665    0.00000329    0.00000000
     atom    3 type  2   force =     0.00000000    0.00000000    0.00000000
     atom    4 type  1   force =     0.00000618    0.00000411    0.00000000
     atom    5 type  1   force =     0.00000000    0.00000000   -0.00000000
     atom    6 type  1   force =     0.00000047   -0.00000741   -0.00000000

     Total force =     0.000013     Total SCF correction =     0.000000

     Computing stress (Cartesian axis) and pressure

          total   stress  (Ry/bohr**3)                   (kbar)     P=   -1.22
  -0.00001204  -0.00000000   0.00000000         -1.77     -0.00      0.00
   0.00000000  -0.00001204  -0.00000000          0.00     -1.77     -0.00
  -0.00000000  -0.00000000  -0.00000086         -0.00     -0.00     -0.13

     General routines

     Parallel routines

      24h

   This run was terminated on:  11:39: 8  14Feb2020

   JOB DONE.