     Program PWSCF v.6.0 (svn rev. 13079) starts on 27Apr2018 at 16:39:33

     Current dimensions of program PWSCF are:
     Max number of different atomic species (ntypx) = 10
     Max number of k-points (npk) =  40000
     Max angular momentum in pseudopotentials (lmaxx) =  3

     Subspace diagonalization in iterative solution of the eigenvalue problem:
     a serial algorithm will be used

     bravais-lattice index     =            0
     lattice parameter (alat)  =       1.8897  a.u.
     unit-cell volume          =     586.6735 (a.u.)^3
     number of atoms/cell      =            4
     number of atomic types    =            2
     number of electrons       =        50.00
     number of Kohn-Sham states=           30
     kinetic-energy cutoff     =      50.0000  Ry
     charge density cutoff     =     500.0000  Ry
     convergence threshold     =      1.0E-10
     mixing beta               =       0.6000
     number of iterations used =            8  plain     mixing
     Exchange-correlation      = SLA  PW   PBE  PBE ( 1  4  3  4 0 0)
     nstep                     =           50

     celldm(1)=   1.889726  celldm(2)=   0.000000  celldm(3)=   0.000000
     celldm(4)=   0.000000  celldm(5)=   0.000000  celldm(6)=   0.000000

     crystal axes: (cart. coord. in units of alat)
               a(1) = (   1.758031   1.758031   5.274095 )
               a(2) = (  -1.758031   5.274095   1.758031 )
               a(3) = (  -1.758031  -5.274095  -1.758031 )

     reciprocal axes: (cart. coord. in units 2 pi/alat)
               b(1) = (  0.000000 -0.071102  0.213307 )
               b(2) = ( -0.284409  0.071102  0.071102 )
               b(3) = ( -0.284409 -0.142205  0.142205 )

     PseudoPot. # 1 for Nb read from file:
     ./Nb.pbe-nsp-van.UPF
     MD5 check sum: 0a22fc7fb0ba19a08ca5db297a5d2854
     Pseudo is Ultrasoft + core correction, Zval = 13.0
     Generated by new atomic code, or converted to UPF format
     Using radial grid of  887 points,  6 beta functions with:
                l(1) =   0
                l(2) =   0
                l(3) =   1
                l(4) =   1
                l(5) =   2
                l(6) =   2
     Q(r) pseudized with  6 coefficients,  rinner =    1.000   1.000   1.000
                                                       1.000   1.000

     PseudoPot. # 2 for Ti read from file:
     ./Ti.pbe-sp-van_ak.UPF
     MD5 check sum: f98fea3e8887528921fefa5636a534ca
     Pseudo is Ultrasoft, Zval = 12.0
     Generated by new atomic code, or converted to UPF format
     Using radial grid of  851 points,  6 beta functions with:
                l(1) =   0
                l(2) =   0
                l(3) =   1
                l(4) =   1
                l(5) =   2
                l(6) =   2
     Q(r) pseudized with  8 coefficients,  rinner =    1.000   1.000   1.000
                                                       1.000   1.000

     atomic species   valence    mass     pseudopotential
        Nb            13.00    92.90638     Nb( 1.00)
        Ti            12.00    47.86700     Ti( 1.00)

      8 Sym. Ops., with inversion, found ( 4 have fractional translation)

   Cartesian axes

     site n.     atom                  positions (alat units)
         1           Ti  tau(   1) = (  -1.7580316   1.7580316   1.7580316  )
         2           Ti  tau(   2) = (  -1.7580316  -1.7580316   1.7580316  )
         3           Nb  tau(   3) = (  -1.7580316   1.7580316   5.2740949  )
         4           Nb  tau(   4) = (   0.0000000   0.0000000   3.5160633  )

     number of k points=   343  Marzari-Vanderbilt smearing, width (Ry)=  0.0200

     Number of k-points >= 100: set verbosity='high' to print them.

     Initial potential from superposition of free atoms

     starting charge   47.99445, renormalised to   50.00000
     Starting wfc are   46 randomized atomic wfcs

     Self-consistent Calculation

     iteration #  1     ecut=    50.00 Ry     beta=0.60
     Davidson diagonalization with overlap
     ethr =  1.00E-02,  avg # of iterations =  3.0

     total energy              =    -461.83406221 Ry
     Harris-Foulkes estimate   =    -470.62800405 Ry
     estimated scf accuracy    <      11.19635051 Ry

[...]

     iteration #  9     ecut=    50.00 Ry     beta=0.60
     Davidson diagonalization with overlap
     c_bands:  1 eigenvalues not converged
     ethr =  2.18E-05,  avg # of iterations =  7.0

[...]

     End of self-consistent calculation

     Number of k-points >= 100: set verbosity='high' to print the bands.

     the Fermi energy is    12.1725 ev

!    total energy              =    -469.06305437 Ry
     Harris-Foulkes estimate   =    -469.06305437 Ry
     estimated scf accuracy    <          3.7E-11 Ry

     The total energy is the sum of the following terms:

     one-electron contribution =    -150.78318393 Ry
     hartree contribution      =      89.55679862 Ry
     xc contribution           =     -65.24472251 Ry
     ewald contribution        =    -342.59101309 Ry
     smearing contrib. (-TS)   =      -0.00093346 Ry

     convergence has been achieved in  40 iterations

     Forces acting on atoms (Ry/au):

     atom    1 type  2   force =     0.00000000   -0.01145349   -0.01145349
     atom    2 type  2   force =     0.00000000    0.01145349    0.01145349
     atom    3 type  1   force =     0.00000000   -0.01237368   -0.01237368
     atom    4 type  1   force =     0.00000000    0.01237368    0.01237368

     Total force =     0.033722     Total SCF correction =     0.000005

     entering subroutine stress ...

          total   stress  (Ry/bohr**3)                   (kbar)     P= -200.24
  -0.00133659  -0.00000000   0.00000000       -196.62     -0.00      0.00
  -0.00000000  -0.00137351  -0.00005678         -0.00   -202.05     -8.35
   0.00000000  -0.00005678  -0.00137351          0.00     -8.35   -202.05

     BFGS Geometry Optimization

     number of scf cycles    =   1
     number of bfgs steps    =   0

     enthalpy new            =    -469.0630543652 Ry

     new trust radius        =       0.1664829638 bohr
     new conv_thr            =            1.0E-10 Ry

     new unit-cell volume =    528.79364 a.u.^3 (    78.35913 Ang^3 )

CELL_PARAMETERS (alat=  1.88972599)
   1.699287193   1.690178592   5.090498975
  -1.699287193   5.090498975   1.690178592
  -1.699287193  -5.090498975  -1.690178592

ATOMIC_POSITIONS (angstrom)
Ti      -1.699287193   1.689325185   1.689325185
Ti      -1.699287193  -1.694315985   1.706004398
Nb      -1.699287193   1.683864854   5.084185237
Nb       0.000000000   0.001322939   3.401643321

     NEW-OLD atomic charge density approx. for the potential
     extrapolated charge   44.74670, renormalised to   50.00000

[...]

     enthalpy old            =    -469.0630543652 Ry
     enthalpy new            =    -469.1297503724 Ry

     CASE: enthalpy_new < enthalpy_old

[...]

     WARNING: bfgs curvature condition failed, Theta= 0.912
     new trust radius        =       0.0128445587 bohr
     new conv_thr            =            1.0E-10 Ry

[...]

     Threshold (ethr) on eigenvalues was too large:
     Diagonalizing with lowered threshold

     Davidson diagonalization with overlap
     ethr =  2.33E-08,  avg # of iterations =  3.6

[...]

     Total force =     0.000012     Total SCF correction =     0.000002
     SCF correction compared to forces is large: reduce conv_thr to get better values

[...]

     small trust_radius: resetting bfgs history

[...]

     number of scf cycles    =  20
     number of bfgs steps    =  19

     enthalpy old            =    -469.1614219218 Ry
     enthalpy new            =    -469.1614219233 Ry

     CASE: enthalpy_new < enthalpy_old

     Message from routine bfgs:
     history already reset at previous step: stopping
     small trust_radius: resetting bfgs history

     new trust radius        =       0.0000113926 bohr
     new conv_thr            =            1.0E-12 Ry

     new unit-cell volume =    475.12207 a.u.^3 (    70.40583 Ang^3 )

[...]

ATOMIC_POSITIONS (angstrom)
Ti      -1.654591961   1.534465014   1.534465014
Ti      -1.654591961  -1.637093233   1.728735688
Nb      -1.654591961   1.424730807   4.790559728
Nb      -0.000000000  -0.049701005   3.316127917

     NEW-OLD atomic charge density approx. for the potential
     extrapolated charge   50.00025, renormalised to   50.00000

[...]

     Threshold (ethr) on eigenvalues was too large:
     Diagonalizing with lowered threshold

     Davidson diagonalization with overlap
     ethr =  1.00E-11,  avg # of iterations =  2.0

[...]

     bfgs converged in  21 scf cycles and  20 bfgs steps
     (criteria: energy <  1.0E-10, force <  1.0E-05, cell <  1.0E-03)

     End of BFGS Geometry Optimization

     Final enthalpy =    -469.1614219239 Ry
Begin final coordinates
     new unit-cell volume =    475.12207 a.u.^3 (    70.40583 Ang^3 )

CELL_PARAMETERS (alat=  1.88972599)
   1.654591961   1.477658022   4.843486943
  -1.654591961   4.843486943   1.477658022
  -1.654591961  -4.843486943  -1.477658022

ATOMIC_POSITIONS (angstrom)
Ti      -1.654591961   1.534465014   1.534465014
Ti      -1.654591961  -1.637093233   1.728735688
Nb      -1.654591961   1.424730807   4.790559728
Nb      -0.000000000  -0.049701005   3.316127917
End final coordinates

     A final scf calculation at the relaxed structure.
     The G-vectors are recalculated for the final unit cell
     Results may differ from those at the preceding step.

   Info: using nr1, nr2, nr3 values from input

   Info: using nr1, nr2, nr3 values from input

     bravais-lattice index     =            0
     lattice parameter (alat)  =       1.8897  a.u.
     unit-cell volume          =     475.1221 (a.u.)^3
     number of atoms/cell      =            4
     number of atomic types    =            2
     number of electrons       =        50.00
     number of Kohn-Sham states=           30
     kinetic-energy cutoff     =      50.0000  Ry
     charge density cutoff     =     500.0000  Ry
     convergence threshold     =      1.0E-12
     mixing beta               =       0.6000
     number of iterations used =            8  plain     mixing
     Exchange-correlation      = SLA  PW   PBE  PBE ( 1  4  3  4 0 0)

     celldm(1)=   1.889726  celldm(2)=   0.000000  celldm(3)=   0.000000
     celldm(4)=   0.000000  celldm(5)=   0.000000  celldm(6)=   0.000000

     crystal axes: (cart. coord. in units of alat)
               a(1) = (   1.654592   1.477658   4.843487 )
               a(2) = (  -1.654592   4.843487   1.477658 )
               a(3) = (  -1.654592  -4.843487  -1.477658 )

     reciprocal axes: (cart. coord. in units 2 pi/alat)
               b(1) = (  0.000000 -0.069452  0.227651 )
               b(2) = ( -0.302189  0.079100  0.079100 )
               b(3) = ( -0.302189 -0.148552  0.148552 )

     PseudoPot. # 1 for Nb read from file:
     ./Nb.pbe-nsp-van.UPF
     MD5 check sum: 0a22fc7fb0ba19a08ca5db297a5d2854
     Pseudo is Ultrasoft + core correction, Zval = 13.0
     Generated by new atomic code, or converted to UPF format
     Using radial grid of  887 points,  6 beta functions with:
                l(1) =   0
                l(2) =   0
                l(3) =   1
                l(4) =   1
                l(5) =   2
                l(6) =   2
     Q(r) pseudized with  6 coefficients,  rinner =    1.000   1.000   1.000
                                                       1.000   1.000

     PseudoPot. # 2 for Ti read from file:
     ./Ti.pbe-sp-van_ak.UPF
     MD5 check sum: f98fea3e8887528921fefa5636a534ca
     Pseudo is Ultrasoft, Zval = 12.0
     Generated by new atomic code, or converted to UPF format
     Using radial grid of  851 points,  6 beta functions with:
                l(1) =   0
                l(2) =   0
                l(3) =   1
                l(4) =   1
                l(5) =   2
                l(6) =   2
     Q(r) pseudized with  8 coefficients,  rinner =    1.000   1.000   1.000
                                                       1.000   1.000

     atomic species   valence    mass     pseudopotential
        Nb            13.00    92.90638     Nb( 1.00)
        Ti            12.00    47.86700     Ti( 1.00)

      8 Sym. Ops., with inversion, found ( 4 have fractional translation)

   Cartesian axes

     site n.     atom                  positions (alat units)
         1           Ti  tau(   1) = (  -1.6545921   1.5344651   1.5344651  )
         2           Ti  tau(   2) = (  -1.6545921  -1.6370934   1.7287358  )
         3           Nb  tau(   3) = (  -1.6545921   1.4247309   4.7905601  )
         4           Nb  tau(   4) = (  -0.0000000  -0.0497010   3.3161282  )

     number of k points=   343  Marzari-Vanderbilt smearing, width (Ry)=  0.0200

     Number of k-points >= 100: set verbosity='high' to print them.

     Initial potential from superposition of free atoms

     starting charge   47.99445, renormalised to   50.00000
     Starting wfc are   46 randomized atomic wfcs

     Self-consistent Calculation

     iteration #  1     ecut=    50.00 Ry     beta=0.60
     Davidson diagonalization with overlap
     c_bands:  1 eigenvalues not converged
     c_bands:  1 eigenvalues not converged
     c_bands:  2 eigenvalues not converged
     c_bands:  1 eigenvalues not converged
     c_bands:  1 eigenvalues not converged
     c_bands:  1 eigenvalues not converged
     c_bands:  2 eigenvalues not converged
     c_bands:  1 eigenvalues not converged
     c_bands:  1 eigenvalues not converged
     c_bands:  1 eigenvalues not converged
     c_bands:  1 eigenvalues not converged
     c_bands:  1 eigenvalues not converged
     c_bands:  1 eigenvalues not converged
     c_bands:  1 eigenvalues not converged
     c_bands:  1 eigenvalues not converged
     c_bands:  1 eigenvalues not converged
     c_bands:  2 eigenvalues not converged
     c_bands:  2 eigenvalues not converged
     c_bands:  1 eigenvalues not converged
     c_bands:  1 eigenvalues not converged
     c_bands:  1 eigenvalues not converged
     c_bands:  1 eigenvalues not converged
     c_bands:  1 eigenvalues not converged
     c_bands:  1 eigenvalues not converged
     ethr =  1.00E-06,  avg # of iterations = 12.6

[...]

     total energy              =    -469.16096282 Ry
     Harris-Foulkes estimate   =    -469.16096282 Ry
     estimated scf accuracy    <          1.4E-11 Ry

     iteration # 29     ecut=    50.00 Ry     beta=0.60
     Davidson diagonalization with overlap
     ethr =  1.00E-13,  avg # of iterations =  3.5

     End of self-consistent calculation

     Number of k-points >= 100: set verbosity='high' to print the bands.

     the Fermi energy is    15.6669 ev

!    total energy              =    -469.16096282 Ry
     Harris-Foulkes estimate   =    -469.16096282 Ry
     estimated scf accuracy    <          6.1E-13 Ry

     The total energy is the sum of the following terms:

     one-electron contribution =    -115.44600243 Ry
     hartree contribution      =      79.16446198 Ry
     xc contribution           =     -65.99085561 Ry
     ewald contribution        =    -366.88852413 Ry
     smearing contrib. (-TS)   =      -0.00004265 Ry

     convergence has been achieved in  29 iterations

     Forces acting on atoms (Ry/au):

     atom    1 type  2   force =     0.00000000   -0.00001316   -0.00001316
     atom    2 type  2   force =     0.00000000    0.00001316    0.00001316
     atom    3 type  1   force =     0.00000000   -0.00000759   -0.00000759
     atom    4 type  1   force =     0.00000000    0.00000759    0.00000759

     Total force =     0.000030     Total SCF correction =     0.000001

     entering subroutine stress ...

          total   stress  (Ry/bohr**3)                   (kbar)     P=   -0.77
  -0.00000576   0.00000000   0.00000000         -0.85      0.00      0.00
  -0.00000000  -0.00000502   0.00000070         -0.00     -0.74      0.10
   0.00000000   0.00000070  -0.00000502          0.00      0.10     -0.74

     General routines

     Parallel routines

   This run was terminated on:   1:52:25  28Apr2018

   JOB DONE.