     Program PWSCF v.6.3MaX starts on  1Feb2020 at 12:46: 2

     R & G space division:  proc/nbgrp/npool/nimage =       4
     Waiting for input...
     Reading input from standard input

     Current dimensions of program PWSCF are:
     Max number of different atomic species (ntypx) = 10
     Max number of k-points (npk) =  40000
     Max angular momentum in pseudopotentials (lmaxx) =  3
     Message from routine iosys:
     minimal I/O required, wf_collect reset to FALSE

     Subspace diagonalization in iterative solution of the eigenvalue problem:
     a serial algorithm will be used

     bravais-lattice index     =            0
     lattice parameter (alat)  =       1.8897  a.u.
     unit-cell volume          =     733.3418 (a.u.)^3
     number of atoms/cell      =            5
     number of atomic types    =            2
     number of electrons       =        62.00
     number of Kohn-Sham states=           37
     kinetic-energy cutoff     =      50.0000  Ry
     charge density cutoff     =     500.0000  Ry
     convergence threshold     =      1.0E-10
     mixing beta               =       0.6000
     number of iterations used =            8  plain     mixing
     Exchange-correlation      = SLA PW PBE PBE ( 1  4  3  4 0 0)
     nstep                     =           50

     celldm(1)=   1.889726  celldm(2)=   0.000000  celldm(3)=   0.000000
     celldm(4)=   0.000000  celldm(5)=   0.000000  celldm(6)=   0.000000

     crystal axes: (cart. coord. in units of alat)
               a(1) = (   5.274095   1.758031   5.274095 )
               a(2) = (   1.758031   5.274095   5.274095 )
               a(3) = (  -1.758031  -1.758031   1.758031 )

     reciprocal axes: (cart. coord. in units 2 pi/alat)
               b(1) = (  0.170645 -0.113764  0.056882 )
               b(2) = ( -0.113764  0.170645  0.056882 )
               b(3) = ( -0.170645 -0.170645  0.227527 )

     PseudoPot. # 1 for Nb read from file:
     ./Nb.pbe-nsp-van.UPF
     MD5 check sum: 0a22fc7fb0ba19a08ca5db297a5d2854
     Pseudo is Ultrasoft + core correction, Zval = 13.0
     Generated by new atomic code, or converted to UPF format
     Using radial grid of  887 points,  6 beta functions with:
                l(1) =   0
                l(2) =   0
                l(3) =   1
                l(4) =   1
                l(5) =   2
                l(6) =   2
     Q(r) pseudized with  6 coefficients,  rinner =    1.000   1.000   1.000
                                                       1.000   1.000

     PseudoPot. # 2 for Ti read from file:
     ./Ti.pbe-sp-van_ak.UPF
     MD5 check sum: f98fea3e8887528921fefa5636a534ca
     Pseudo is Ultrasoft, Zval = 12.0
     Generated by new atomic code, or converted to UPF format
     Using radial grid of  851 points,  6 beta functions with:
                l(1) =   0
                l(2) =   0
                l(3) =   1
                l(4) =   1
                l(5) =   2
                l(6) =   2
     Q(r) pseudized with  8 coefficients,  rinner =    1.000   1.000   1.000
                                                       1.000   1.000

     atomic species   valence    mass     pseudopotential
        Nb            13.00    92.90638     Nb( 1.00)
        Ti            12.00    47.86700     Ti( 1.00)

      2 Sym. Ops. (no inversion) found

   Cartesian axes

     site n.     atom                  positions (alat units)
         1           Ti  tau(   1) = (   0.0000000   0.0000000   3.5160633  )
         2           Ti  tau(   2) = (   1.7580316   1.7580316   5.2740949  )
         3           Nb  tau(   3) = (   3.5160633   3.5160633   7.0321265  )
         4           Ti  tau(   4) = (   5.2740949   5.2740949   8.7901582  )
         5           Nb  tau(   5) = (   5.2740949   5.2740949  12.3062214  )

     number of k points=   500  Marzari-Vanderbilt smearing, width (Ry)=  0.0200

     Number of k-points >= 100: set verbosity='high' to print them.

     Initial potential from superposition of free atoms

     starting charge   58.99440, renormalised to   62.00000
     Starting wfcs are   56 randomized atomic wfcs

     Self-consistent Calculation

     iteration #  1     ecut=    50.00 Ry     beta= 0.60
     Davidson diagonalization with overlap
     ethr =  1.00E-02,  avg # of iterations =  3.6

     total energy              =    -554.49093887 Ry
     Harris-Foulkes estimate   =    -590.33963714 Ry
     estimated scf accuracy    <      44.34649804 Ry

[...]

     iteration # 25     ecut=    50.00 Ry     beta= 0.60
     Davidson diagonalization with overlap
     c_bands:  1 eigenvalues not converged
     c_bands:  1 eigenvalues not converged
     c_bands:  1 eigenvalues not converged
     c_bands:  1 eigenvalues not converged
     c_bands:  1 eigenvalues not converged
     c_bands:  1 eigenvalues not converged
     c_bands:  1 eigenvalues not converged
     c_bands:  1 eigenvalues not converged
     c_bands:  1 eigenvalues not converged
     c_bands:  1 eigenvalues not converged
     ethr =  1.27E-05,  avg # of iterations =  8.9

[...]

     End of self-consistent calculation

     Number of k-points >= 100: set verbosity='high' to print the bands.

     the Fermi energy is    11.7308 ev

!    total energy              =    -585.69815071 Ry
     Harris-Foulkes estimate   =    -585.69815071 Ry
     estimated scf accuracy    <          1.8E-11 Ry

     The total energy is the sum of the following terms:

     one-electron contribution =    -202.02899822 Ry
     hartree contribution      =     117.17366945 Ry
     xc contribution           =     -79.61933698 Ry
     ewald contribution        =    -421.22231145 Ry
     smearing contrib. (-TS)   =      -0.00117351 Ry

     convergence has been achieved in  36 iterations

     Forces acting on atoms (cartesian axes, Ry/au):

     atom    1 type  2   force =    -0.00458637   -0.00458637   -0.01185803
     atom    2 type  2   force =     0.00458061    0.00458061    0.01184635
     atom    3 type  1   force =     0.00456934    0.00456934   -0.01111931
     atom    4 type  2   force =     0.00000420    0.00000420    0.00000888
     atom    5 type  1   force =    -0.00456778   -0.00456778    0.01112211

     Total force =     0.026378     Total SCF correction =     0.000014

     Computing stress (Cartesian axis) and pressure

          total   stress  (Ry/bohr**3)                   (kbar)     P= -193.11
  -0.00130896   0.00000474   0.00001440       -192.56      0.70      2.12
   0.00000474  -0.00130896   0.00001440          0.70   -192.56      2.12
   0.00001440   0.00001440  -0.00132031          2.12      2.12   -194.22

     BFGS Geometry Optimization

     number of scf cycles    =   1
     number of bfgs steps    =   0

     enthalpy new            =    -585.6981507066 Ry

     new trust radius        =       0.1787932330 bohr
     new conv_thr            =            1.0E-10 Ry

     new unit-cell volume =    663.48340 a.u.^3 (    98.31810 Ang^3 )
     density =      5.56362 g/cm^3

CELL_PARAMETERS (alat=  1.88972599)
   5.103612140   1.703026091   5.102540513
   1.703026091   5.103612140   5.102540513
  -1.700076989  -1.700076989   1.698736746

ATOMIC_POSITIONS (angstrom)
Ti      -0.001084072  -0.001084072   3.393935978
Ti       1.704956274   1.704956274   5.107338103
Nb       3.406289176   3.406289176   6.796855190
Ti       5.105297339   5.105297339   8.503816715
Nb       5.104225008   5.104225008  11.909507331

     NEW-OLD atomic charge density approx. for the potential
     extrapolated charge   55.78846, renormalised to   62.00000

[...]

     enthalpy old            =    -585.6981507066 Ry
     enthalpy new            =    -585.7756805446 Ry

     CASE: enthalpy_new < enthalpy_old

[...]

     Threshold (ethr) on eigenvalues was too large:
     Diagonalizing with lowered threshold

     Davidson diagonalization with overlap
     ethr =  2.88E-08,  avg # of iterations =  3.8

[...]

     Total force =     0.000024     Total SCF correction =     0.000003
     SCF correction compared to forces is large: reduce conv_thr to get better values

[...]

     small trust_radius: resetting bfgs history

[...]

     number of scf cycles    =  34
     number of bfgs steps    =  33

     enthalpy old            =    -585.8138849692 Ry
     enthalpy new            =    -585.8138849706 Ry

     CASE: enthalpy_new < enthalpy_old

     Message from routine bfgs:
     history already reset at previous step: stopping
     small trust_radius: resetting bfgs history

     new trust radius        =       0.0000124844 bohr
     new conv_thr            =            1.1E-12 Ry

     new unit-cell volume =    592.85353 a.u.^3 (    87.85183 Ang^3 )
     density =      6.22644 g/cm^3

[...]

ATOMIC_POSITIONS (angstrom)
Ti       0.091022142   0.091022142   3.247707974
Ti       1.491707319   1.491707319   5.199382271
Nb       3.261731411   3.261731411   6.653097282
Ti       4.811002252   4.811002252   8.421708386
Nb       4.739857210   4.739857210  11.894941255

     NEW-OLD atomic charge density approx. for the potential
     extrapolated charge   61.99985, renormalised to   62.00000

[...]

     Threshold (ethr) on eigenvalues was too large:
     Diagonalizing with lowered threshold

     Davidson diagonalization with overlap
     ethr =  3.63E-12,  avg # of iterations =  3.5

[...]

     Total force =     0.000015     Total SCF correction =     0.000002
     SCF correction compared to forces is large: reduce conv_thr to get better values

[...]

     bfgs converged in  35 scf cycles and  34 bfgs steps
     (criteria: energy <  1.0E-10 Ry, force <  1.0E-05Ry/Bohr, cell <  1.0E-03kbar)

     End of BFGS Geometry Optimization

     Final enthalpy =    -585.8138849710 Ry
Begin final coordinates
     new unit-cell volume =    592.85353 a.u.^3 (    87.85183 Ang^3 )
     density =      6.22644 g/cm^3

CELL_PARAMETERS (alat=  1.88972599)
   4.817867464   1.600987413   5.050481802
   1.600987413   4.817867464   5.050481802
  -1.620414766  -1.620414766   1.704648786

ATOMIC_POSITIONS (angstrom)
Ti       0.091022142   0.091022142   3.247707974
Ti       1.491707319   1.491707319   5.199382271
Nb       3.261731411   3.261731411   6.653097282
Ti       4.811002252   4.811002252   8.421708386
Nb       4.739857210   4.739857210  11.894941255
End final coordinates

     A final scf calculation at the relaxed structure.
     The G-vectors are recalculated for the final unit cell
     Results may differ from those at the preceding step.

     bravais-lattice index     =            0
     lattice parameter (alat)  =       1.8897  a.u.
     unit-cell volume          =     592.8535 (a.u.)^3
     number of atoms/cell      =            5
     number of atomic types    =            2
     number of electrons       =        62.00
     number of Kohn-Sham states=           37
     kinetic-energy cutoff     =      50.0000  Ry
     charge density cutoff     =     500.0000  Ry
     convergence threshold     =      1.1E-12
     mixing beta               =       0.6000
     number of iterations used =            8  plain     mixing
     Exchange-correlation      = SLA PW PBE PBE ( 1  4  3  4 0 0)

     celldm(1)=   1.889726  celldm(2)=   0.000000  celldm(3)=   0.000000
     celldm(4)=   0.000000  celldm(5)=   0.000000  celldm(6)=   0.000000

     crystal axes: (cart. coord. in units of alat)
               a(1) = (   4.817867   1.600987   5.050482 )
               a(2) = (   1.600987   4.817867   5.050482 )
               a(3) = (  -1.620415  -1.620415   1.704649 )

     reciprocal axes: (cart. coord. in units 2 pi/alat)
               b(1) = (  0.186640 -0.124220  0.059335 )
               b(2) = ( -0.124220  0.186640  0.059335 )
               b(3) = ( -0.184934 -0.184934  0.235040 )

     PseudoPot. # 1 for Nb read from file:
     ./Nb.pbe-nsp-van.UPF
     MD5 check sum: 0a22fc7fb0ba19a08ca5db297a5d2854
     Pseudo is Ultrasoft + core correction, Zval = 13.0
     Generated by new atomic code, or converted to UPF format
     Using radial grid of  887 points,  6 beta functions with:
                l(1) =   0
                l(2) =   0
                l(3) =   1
                l(4) =   1
                l(5) =   2
                l(6) =   2
     Q(r) pseudized with  6 coefficients,  rinner =    1.000   1.000   1.000
                                                       1.000   1.000

     PseudoPot. # 2 for Ti read from file:
     ./Ti.pbe-sp-van_ak.UPF
     MD5 check sum: f98fea3e8887528921fefa5636a534ca
     Pseudo is Ultrasoft, Zval = 12.0
     Generated by new atomic code, or converted to UPF format
     Using radial grid of  851 points,  6 beta functions with:
                l(1) =   0
                l(2) =   0
                l(3) =   1
                l(4) =   1
                l(5) =   2
                l(6) =   2
     Q(r) pseudized with  8 coefficients,  rinner =    1.000   1.000   1.000
                                                       1.000   1.000

     atomic species   valence    mass     pseudopotential
        Nb            13.00    92.90638     Nb( 1.00)
        Ti            12.00    47.86700     Ti( 1.00)

      2 Sym. Ops. (no inversion) found

   Cartesian axes

     site n.     atom                  positions (alat units)
         1           Ti  tau(   1) = (   0.0910221   0.0910221   3.2477082  )
         2           Ti  tau(   2) = (   1.4917074   1.4917074   5.1993827  )
         3           Nb  tau(   3) = (   3.2617317   3.2617317   6.6530978  )
         4           Ti  tau(   4) = (   4.8110026   4.8110026   8.4217090  )
         5           Nb  tau(   5) = (   4.7398576   4.7398576  11.8949422  )

     number of k points=   500  Marzari-Vanderbilt smearing, width (Ry)=  0.0200

     Number of k-points >= 100: set verbosity='high' to print them.

     Initial potential from superposition of free atoms

     starting charge   58.99440, renormalised to   62.00000
     Starting wfcs are   56 randomized atomic wfcs

     Self-consistent Calculation

[...]

     iteration # 18     ecut=    50.00 Ry     beta= 0.60
     Davidson diagonalization with overlap
     c_bands:  1 eigenvalues not converged
     c_bands:  1 eigenvalues not converged
     ethr =  5.62E-06,  avg # of iterations =  7.3

[...]

     total energy              =    -585.81333207 Ry
     Harris-Foulkes estimate   =    -585.81333207 Ry
     estimated scf accuracy    <          1.6E-12 Ry

     iteration # 34     ecut=    50.00 Ry     beta= 0.60
     Davidson diagonalization with overlap
     ethr =  1.00E-13,  avg # of iterations =  1.0

     End of self-consistent calculation

     Number of k-points >= 100: set verbosity='high' to print the bands.

     the Fermi energy is    15.1705 ev

!    total energy              =    -585.81333207 Ry
     Harris-Foulkes estimate   =    -585.81333207 Ry
     estimated scf accuracy    <          6.5E-13 Ry

     The total energy is the sum of the following terms:

     one-electron contribution =    -157.46901247 Ry
     hartree contribution      =     103.73844587 Ry
     xc contribution           =     -80.49864417 Ry
     ewald contribution        =    -451.58396717 Ry
     smearing contrib. (-TS)   =      -0.00015412 Ry

     convergence has been achieved in  34 iterations

     Forces acting on atoms (cartesian axes, Ry/au):

     atom    1 type  2   force =     0.00000662    0.00000662    0.00001762
     atom    2 type  2   force =    -0.00000681   -0.00000681   -0.00001816
     atom    3 type  1   force =    -0.00000906   -0.00000906   -0.00001259
     atom    4 type  2   force =    -0.00000080   -0.00000080   -0.00000143
     atom    5 type  1   force =     0.00001005    0.00001005    0.00001457

     Total force =     0.000040     Total SCF correction =     0.000003

     Computing stress (Cartesian axis) and pressure

          total   stress  (Ry/bohr**3)                   (kbar)     P=   -0.64
  -0.00000379  -0.00000002   0.00000021         -0.56     -0.00      0.03
  -0.00000002  -0.00000379   0.00000021         -0.00     -0.56      0.03
   0.00000021   0.00000021  -0.00000544          0.03      0.03     -0.80

     General routines

     Parallel routines

       6h

   This run was terminated on:   2:52:12   2Feb2020

   JOB DONE.