     Program PWSCF v.6.3MaX starts on 12Feb2020 at 11:30:57

     R & G space division:  proc/nbgrp/npool/nimage =       4
     Waiting for input...
     Reading input from standard input

     Current dimensions of program PWSCF are:
     Max number of different atomic species (ntypx) = 10
     Max number of k-points (npk) =  40000
     Max angular momentum in pseudopotentials (lmaxx) =  3
     Message from routine iosys:
     minimal I/O required, wf_collect reset to FALSE

     Subspace diagonalization in iterative solution of the eigenvalue problem:
     a serial algorithm will be used

     bravais-lattice index     =            0
     lattice parameter (alat)  =       1.8897  a.u.
     unit-cell volume          =     808.3427 (a.u.)^3
     number of atoms/cell      =            6
     number of atomic types    =            2
     number of electrons       =        75.00
     number of Kohn-Sham states=           46
     kinetic-energy cutoff     =      40.0000  Ry
     charge density cutoff     =     400.0000  Ry
     convergence threshold     =      1.0E-10
     mixing beta               =       0.6000
     number of iterations used =            8  plain     mixing
     Exchange-correlation      = SLA PW PBE PBE ( 1  4  3  4 0 0)
     nstep                     =           50

     celldm(1)=   1.889726  celldm(2)=   0.000000  celldm(3)=   0.000000
     celldm(4)=   0.000000  celldm(5)=   0.000000  celldm(6)=   0.000000

     crystal axes: (cart. coord. in units of alat)
               a(1) = (   4.567506  -2.637051   0.000000 )
               a(2) = (  -4.567506  -2.637051   0.000000 )
               a(3) = (   0.000000   0.000000  -4.972461 )

     reciprocal axes: (cart. coord. in units 2 pi/alat)
               b(1) = (  0.109469 -0.189606  0.000000 )
               b(2) = ( -0.109469 -0.189606  0.000000 )
               b(3) = (  0.000000  0.000000 -0.201108 )

     PseudoPot. # 1 for Nb read from file:
     ./Nb.pbe-nsp-van.UPF
     MD5 check sum: 0a22fc7fb0ba19a08ca5db297a5d2854
     Pseudo is Ultrasoft + core correction, Zval = 13.0
     Generated by new atomic code, or converted to UPF format
     Using radial grid of  887 points,  6 beta functions with:
                l(1) =   0
                l(2) =   0
                l(3) =   1
                l(4) =   1
                l(5) =   2
                l(6) =   2
     Q(r) pseudized with  6 coefficients,  rinner =    1.000   1.000   1.000
                                                       1.000   1.000

     PseudoPot. # 2 for Ti read from file:
     ./Ti.pbe-sp-van_ak.UPF
     MD5 check sum: f98fea3e8887528921fefa5636a534ca
     Pseudo is Ultrasoft, Zval = 12.0
     Generated by new atomic code, or converted to UPF format
     Using radial grid of  851 points,  6 beta functions with:
                l(1) =   0
                l(2) =   0
                l(3) =   1
                l(4) =   1
                l(5) =   2
                l(6) =   2
     Q(r) pseudized with  8 coefficients,  rinner =    1.000   1.000   1.000
                                                       1.000   1.000

     atomic species   valence    mass     pseudopotential
        Nb            13.00    92.90638     Nb( 1.00)
        Ti            12.00    47.86700     Ti( 1.00)

      2 Sym. Ops. (no inversion) found
          (note:  2 additional sym.ops. were found but ignored
           their fractional translations are incommensurate with FFT grid)

   Cartesian axes

     site n.     atom                  positions (alat units)
         1           Ti  tau(   1) = (   0.0000000  -5.2741024  -4.9724614  )
         2           Ti  tau(   2) = (   0.0000015  -1.7580350  -2.4862307  )
         3           Ti  tau(   3) = (  -1.5225021  -2.6370512  -4.9724614  )
         4           Nb  tau(   4) = (  -1.5225006  -4.3950862  -2.4862307  )
         5           Nb  tau(   5) = (   1.5225021  -2.6370512  -4.9724614  )
         6           Nb  tau(   6) = (   1.5225036  -4.3950862  -2.4862307  )

     number of k points=   427  Marzari-Vanderbilt smearing, width (Ry)=  0.0200

     Number of k-points >= 100: set verbosity='high' to print them.

     Initial potential from superposition of free atoms

     starting charge   71.99167, renormalised to   75.00000
     Starting wfcs are   69 randomized atomic wfcs

     Self-consistent Calculation

     iteration #  1     ecut=    40.00 Ry     beta= 0.60
     Davidson diagonalization with overlap
     ethr =  1.00E-02,  avg # of iterations =  3.0

     total energy              =    -691.74812836 Ry
     Harris-Foulkes estimate   =    -706.08388840 Ry
     estimated scf accuracy    <      18.18663367 Ry

[...]

     End of self-consistent calculation

     Number of k-points >= 100: set verbosity='high' to print the bands.

     the Fermi energy is    13.8366 ev

!    total energy              =    -703.64351899 Ry
     Harris-Foulkes estimate   =    -703.64351899 Ry
     estimated scf accuracy    <          2.8E-11 Ry

     The total energy is the sum of the following terms:

     one-electron contribution =    -204.41052397 Ry
     hartree contribution      =     127.58581675 Ry
     xc contribution           =     -98.24463889 Ry
     ewald contribution        =    -528.56686845 Ry
     smearing contrib. (-TS)   =      -0.00730443 Ry

     convergence has been achieved in  31 iterations

     Forces acting on atoms (cartesian axes, Ry/au):

     atom    1 type  2   force =    -0.00023590    0.00153914    0.00000000
     atom    2 type  2   force =    -0.00009511    0.00002923    0.00000000
     atom    3 type  2   force =    -0.00144675   -0.00055598    0.00000000
     atom    4 type  1   force =    -0.00138744   -0.00064443    0.00000000
     atom    5 type  1   force =     0.00329760   -0.00189850    0.00000000
     atom    6 type  1   force =    -0.00013240    0.00153054    0.00000000

     Total force =     0.004901     Total SCF correction =     0.000006

     Computing stress (Cartesian axis) and pressure

          total   stress  (Ry/bohr**3)                   (kbar)     P= -125.49
  -0.00089610   0.00000300   0.00000000       -131.82      0.44      0.00
   0.00000300  -0.00089263   0.00000000          0.44   -131.31      0.00
   0.00000000   0.00000000  -0.00077047          0.00      0.00   -113.34

     BFGS Geometry Optimization

     number of scf cycles    =   1
     number of bfgs steps    =   0

     enthalpy new            =    -703.6435189909 Ry

     new trust radius        =       0.1273876493 bohr
     new conv_thr            =            1.0E-10 Ry

     new unit-cell volume =    757.71752 a.u.^3 (   112.28215 Ang^3 )
     density =      6.24569 g/cm^3

CELL_PARAMETERS (alat=  1.88972599)
   4.464984795  -2.577861304   0.000000000
  -4.465379793  -2.578545460   0.000000000
   0.000000000   0.000000000  -4.876682291

ATOMIC_POSITIONS (angstrom)
Ti      -0.000516972  -5.155610468  -4.876682291
Ti      -0.000179379  -1.718787996  -2.438341145
Ti      -1.489340057  -2.578605110  -4.876682291
Nb      -1.489439555  -4.297453986  -2.438341145
Nb       1.489902448  -2.579071449  -4.876682291
Nb       1.487997991  -4.296100623  -2.438341145

     NEW-OLD atomic charge density approx. for the potential

     Check: negative/imaginary core charge=   -0.000001    0.000000
     extrapolated charge   70.19004, renormalised to   75.00000

[...]

     iteration #  1     ecut=    40.00 Ry     beta= 0.60
     Davidson diagonalization with overlap
     c_bands:  1 eigenvalues not converged
     c_bands:  1 eigenvalues not converged
     c_bands:  1 eigenvalues not converged
     c_bands:  1 eigenvalues not converged
     c_bands:  1 eigenvalues not converged
     c_bands:  2 eigenvalues not converged
     c_bands:  1 eigenvalues not converged
     c_bands:  2 eigenvalues not converged
     c_bands:  2 eigenvalues not converged
     c_bands:  2 eigenvalues not converged
     c_bands:  2 eigenvalues not converged
     c_bands:  1 eigenvalues not converged
     c_bands:  1 eigenvalues not converged
     c_bands:  1 eigenvalues not converged
     c_bands:  1 eigenvalues not converged
     c_bands:  1 eigenvalues not converged
     c_bands:  1 eigenvalues not converged
     c_bands:  2 eigenvalues not converged
     c_bands:  2 eigenvalues not converged
     c_bands:  2 eigenvalues not converged
     c_bands:  1 eigenvalues not converged
     c_bands:  1 eigenvalues not converged
     c_bands:  1 eigenvalues not converged
     c_bands:  2 eigenvalues not converged
     c_bands:  1 eigenvalues not converged
     c_bands:  1 eigenvalues not converged
     c_bands:  1 eigenvalues not converged
     c_bands:  1 eigenvalues not converged
     c_bands:  1 eigenvalues not converged
     c_bands:  1 eigenvalues not converged
     c_bands:  1 eigenvalues not converged
     c_bands:  1 eigenvalues not converged
     c_bands:  1 eigenvalues not converged
     c_bands:  1 eigenvalues not converged
     c_bands:  2 eigenvalues not converged
     c_bands:  2 eigenvalues not converged
     c_bands:  1 eigenvalues not converged
     c_bands:  1 eigenvalues not converged
     c_bands:  1 eigenvalues not converged
     c_bands:  1 eigenvalues not converged
     c_bands:  1 eigenvalues not converged
     c_bands:  1 eigenvalues not converged
     c_bands:  1 eigenvalues not converged
     c_bands:  1 eigenvalues not converged
     c_bands:  1 eigenvalues not converged
     c_bands:  1 eigenvalues not converged
     c_bands:  1 eigenvalues not converged
     c_bands:  2 eigenvalues not converged
     c_bands:  2 eigenvalues not converged
     c_bands:  1 eigenvalues not converged
     c_bands:  1 eigenvalues not converged
     c_bands:  1 eigenvalues not converged
     c_bands:  1 eigenvalues not converged
     c_bands:  2 eigenvalues not converged
     c_bands:  2 eigenvalues not converged
     c_bands:  1 eigenvalues not converged
     c_bands:  1 eigenvalues not converged
     c_bands:  1 eigenvalues not converged
     c_bands:  1 eigenvalues not converged
     c_bands:  2 eigenvalues not converged
[...]
     c_bands:  1 eigenvalues not converged
     c_bands:  1 eigenvalues not converged
     c_bands:  1 eigenvalues not converged
     c_bands:  2 eigenvalues not converged
     c_bands:  1 eigenvalues not converged
     c_bands:  2 eigenvalues not converged
     c_bands:  1 eigenvalues not converged
     c_bands:  1 eigenvalues not converged
     c_bands:  1 eigenvalues not converged
     c_bands:  1 eigenvalues not converged
     c_bands:  1 eigenvalues not converged
     c_bands:  1 eigenvalues not converged
     c_bands:  1 eigenvalues not converged
     c_bands:  1 eigenvalues not converged
     c_bands:  1 eigenvalues not converged
     ethr =  1.00E-06,  avg # of iterations = 18.9

[...]

     enthalpy old            =    -703.6435189909 Ry
     enthalpy new            =    -703.6758258712 Ry

     CASE: enthalpy_new < enthalpy_old

[...]

     WARNING: bfgs curvature condition failed, Theta= 0.887
     new trust radius        =       0.0048041967 bohr
     new conv_thr            =            1.0E-10 Ry

[...]

     NEW-OLD atomic charge density approx. for the potential

     Check: negative/imaginary core charge=   -0.000001    0.000000
     extrapolated charge   74.89213, renormalised to   75.00000

[...]

     NEW-OLD atomic charge density approx. for the potential
     extrapolated charge   74.83539, renormalised to   75.00000

[...]

     Threshold (ethr) on eigenvalues was too large:
     Diagonalizing with lowered threshold

     Davidson diagonalization with overlap
     ethr =  5.09E-08,  avg # of iterations =  2.1

[...]

     new trust radius        =       0.0044145506 bohr
     new conv_thr            =            4.9E-11 Ry

[...]

     Threshold (ethr) on eigenvalues was too large:
     Diagonalizing with lowered threshold

     Davidson diagonalization with overlap
     ethr =  9.36E-08,  avg # of iterations =  1.1

[...]

     WARNING: info= 27 for Hessian

[...]

     Self-consistent Calculation

     iteration #  1     ecut=    40.00 Ry     beta= 0.60
     Davidson diagonalization with overlap
     c_bands:  1 eigenvalues not converged
     c_bands:  2 eigenvalues not converged
     c_bands:  2 eigenvalues not converged
     c_bands:  2 eigenvalues not converged
     c_bands:  1 eigenvalues not converged
     c_bands:  1 eigenvalues not converged
     c_bands:  2 eigenvalues not converged
     c_bands:  1 eigenvalues not converged
     c_bands:  1 eigenvalues not converged
     c_bands:  2 eigenvalues not converged
     c_bands:  1 eigenvalues not converged
     c_bands:  2 eigenvalues not converged
     c_bands:  1 eigenvalues not converged
     c_bands:  1 eigenvalues not converged
     c_bands:  1 eigenvalues not converged
     c_bands:  1 eigenvalues not converged
     c_bands:  1 eigenvalues not converged
     c_bands:  2 eigenvalues not converged
     c_bands:  1 eigenvalues not converged
     c_bands:  1 eigenvalues not converged
     c_bands:  2 eigenvalues not converged
     c_bands:  1 eigenvalues not converged
     c_bands:  1 eigenvalues not converged
     c_bands:  1 eigenvalues not converged
     c_bands:  1 eigenvalues not converged
     c_bands:  1 eigenvalues not converged
     c_bands:  1 eigenvalues not converged
     c_bands:  1 eigenvalues not converged
     c_bands:  1 eigenvalues not converged
     c_bands:  1 eigenvalues not converged
     c_bands:  1 eigenvalues not converged
     c_bands:  1 eigenvalues not converged
     c_bands:  1 eigenvalues not converged
     c_bands:  1 eigenvalues not converged
     c_bands:  1 eigenvalues not converged
     c_bands:  1 eigenvalues not converged
     c_bands:  1 eigenvalues not converged
     c_bands:  1 eigenvalues not converged
     c_bands:  1 eigenvalues not converged
     ethr =  1.00E-06,  avg # of iterations = 11.9

[...]

     total energy              =    -703.71195996 Ry
     Harris-Foulkes estimate   =    -703.71195996 Ry
     estimated scf accuracy    <          2.1E-10 Ry

     iteration # 20     ecut=    40.00 Ry     beta= 0.60
     Davidson diagonalization with overlap
     ethr =  2.75E-13,  avg # of iterations =  2.4

     End of self-consistent calculation

     Number of k-points >= 100: set verbosity='high' to print the bands.

     the Fermi energy is    15.8445 ev

!    total energy              =    -703.71195996 Ry
     Harris-Foulkes estimate   =    -703.71195996 Ry
     estimated scf accuracy    <          8.5E-12 Ry

     The total energy is the sum of the following terms:

     one-electron contribution =    -173.01550175 Ry
     hartree contribution      =     118.71693533 Ry
     xc contribution           =     -98.95029812 Ry
     ewald contribution        =    -550.46318267 Ry
     smearing contrib. (-TS)   =       0.00008725 Ry

     convergence has been achieved in  20 iterations

     Forces acting on atoms (cartesian axes, Ry/au):

     atom    1 type  2   force =    -0.01217620    0.01842810    0.00000000
     atom    2 type  2   force =     0.01133283   -0.00085506    0.00000000
     atom    3 type  2   force =    -0.02085815   -0.01194622    0.00000000
     atom    4 type  1   force =     0.00030611   -0.00123229    0.00000000
     atom    5 type  1   force =     0.01622144   -0.02239857    0.00000000
     atom    6 type  1   force =     0.00517397    0.01800405    0.00000000

     Total force =     0.048085     Total SCF correction =     0.000004

     Computing stress (Cartesian axis) and pressure

          total   stress  (Ry/bohr**3)                   (kbar)     P=   10.74
  -0.00002655  -0.00002505   0.00000000         -3.91     -3.68      0.00
  -0.00002505   0.00009594   0.00000000         -3.68     14.11      0.00
   0.00000000   0.00000000   0.00014963          0.00      0.00     22.01

     number of scf cycles    =  50
     number of bfgs steps    =  49

     enthalpy old            =    -703.7115560457 Ry
     enthalpy new            =    -703.7119599612 Ry

     CASE: enthalpy_new < enthalpy_old

     WARNING: info=  2 for Hessian

     WARNING: bfgs curvature condition failed, Theta= 0.812
     new trust radius        =       0.3531842978 bohr
     new conv_thr            =            1.0E-10 Ry

     new unit-cell volume =    703.26422 a.u.^3 (   104.21300 Ang^3 )
     density =      6.72929 g/cm^3

CELL_PARAMETERS (alat=  1.88972599)
   4.600074793  -3.005476351   0.000000000
  -4.171245179  -2.339076576   0.000000000
   0.000000000   0.000000000  -4.473332969

ATOMIC_POSITIONS (angstrom)
Ti       0.289094607  -5.629601712  -4.473332969
Ti       0.247228385  -1.578309046  -2.236666485
Ti      -1.331348402  -2.761217476  -4.473332969
Nb      -0.740330280  -4.212877542  -2.236666485
Nb       1.255736944  -2.821969392  -4.473332969
Nb       1.994941803  -4.374239545  -2.236666485

     NEW-OLD atomic charge density approx. for the potential
     extrapolated charge   74.18599, renormalised to   75.00000

     General routines

     Parallel routines

      37h

   This run was terminated on:   1: 8:25  13Feb2020

   JOB DONE.