     Program PWSCF v.6.3MaX starts on  5Feb2020 at  9:31:54

     R & G space division:  proc/nbgrp/npool/nimage =       4
     Waiting for input...
     Reading input from standard input

     Current dimensions of program PWSCF are:
     Max number of different atomic species (ntypx) = 10
     Max number of k-points (npk) =  40000
     Max angular momentum in pseudopotentials (lmaxx) =  3
     Message from routine iosys:
     minimal I/O required, wf_collect reset to FALSE

     Subspace diagonalization in iterative solution of the eigenvalue problem:
     a serial algorithm will be used

     bravais-lattice index     =            0
     lattice parameter (alat)  =       1.8897  a.u.
     unit-cell volume          =    1077.7903 (a.u.)^3
     number of atoms/cell      =            8
     number of atomic types    =            2
     number of electrons       =       103.00
     number of Kohn-Sham states=           62
     kinetic-energy cutoff     =      40.0000  Ry
     charge density cutoff     =     400.0000  Ry
     convergence threshold     =      1.0E-10
     mixing beta               =       0.6000
     number of iterations used =            8  plain     mixing
     Exchange-correlation      = SLA PW PBE PBE ( 1  4  3  4 0 0)
     nstep                     =           50

     celldm(1)=   1.889726  celldm(2)=   0.000000  celldm(3)=   0.000000
     celldm(4)=   0.000000  celldm(5)=   0.000000  celldm(6)=   0.000000

     crystal axes: (cart. coord. in units of alat)
               a(1) = (   0.000000   0.000000  -4.972461 )
               a(2) = (  -4.567506   2.637051   0.000000 )
               a(3) = (   3.045004   5.274102   0.000000 )

     reciprocal axes: (cart. coord. in units 2 pi/alat)
               b(1) = (  0.000000  0.000000 -0.201108 )
               b(2) = ( -0.164203  0.094803  0.000000 )
               b(3) = (  0.082102  0.142204  0.000000 )

     PseudoPot. # 1 for Nb read from file:
     ./Nb.pbe-nsp-van.UPF
     MD5 check sum: 0a22fc7fb0ba19a08ca5db297a5d2854
     Pseudo is Ultrasoft + core correction, Zval = 13.0
     Generated by new atomic code, or converted to UPF format
     Using radial grid of  887 points,  6 beta functions with:
                l(1) =   0
                l(2) =   0
                l(3) =   1
                l(4) =   1
                l(5) =   2
                l(6) =   2
     Q(r) pseudized with  6 coefficients,  rinner =    1.000   1.000   1.000
                                                       1.000   1.000

     PseudoPot. # 2 for Ti read from file:
     ./Ti.pbe-sp-van_ak.UPF
     MD5 check sum: f98fea3e8887528921fefa5636a534ca
     Pseudo is Ultrasoft, Zval = 12.0
     Generated by new atomic code, or converted to UPF format
     Using radial grid of  851 points,  6 beta functions with:
                l(1) =   0
                l(2) =   0
                l(3) =   1
                l(4) =   1
                l(5) =   2
                l(6) =   2
     Q(r) pseudized with  8 coefficients,  rinner =    1.000   1.000   1.000
                                                       1.000   1.000

     atomic species   valence    mass     pseudopotential
        Nb            13.00    92.90638     Nb( 1.00)
        Ti            12.00    47.86700     Ti( 1.00)

      4 Sym. Ops. (no inversion) found

   Cartesian axes

     site n.     atom                  positions (alat units)
         1           Ti  tau(   1) = (  -3.0450042   5.2741024  -4.9724614  )
         2           Nb  tau(   2) = (  -3.0450027   3.5160674  -2.4862307  )
         3           Nb  tau(   3) = (   0.0000000   5.2741024  -4.9724614  )
         4           Nb  tau(   4) = (   0.0000015   3.5160674  -2.4862307  )
         5           Nb  tau(   5) = (  -1.5225021   7.9111536  -4.9724614  )
         6           Nb  tau(   6) = (  -1.5225006   6.1531186  -2.4862307  )
         7           Nb  tau(   7) = (  -1.5225021   2.6370512  -4.9724614  )
         8           Nb  tau(   8) = (   1.5225036   6.1531186  -2.4862307  )

     number of k points=   180  Marzari-Vanderbilt smearing, width (Ry)=  0.0200

     Number of k-points >= 100: set verbosity='high' to print them.

     Check: negative/imaginary core charge=   -0.000001    0.000000

     Initial potential from superposition of free atoms

     starting charge  101.98082, renormalised to  103.00000
     Starting wfcs are  101 randomized atomic wfcs

     Self-consistent Calculation

     iteration #  1     ecut=    40.00 Ry     beta= 0.60
     Davidson diagonalization with overlap
     ethr =  1.00E-02,  avg # of iterations =  2.0

     total energy              =    -917.36179171 Ry
     Harris-Foulkes estimate   =    -944.76187685 Ry
     estimated scf accuracy    <      34.20560773 Ry

[...]

     End of self-consistent calculation

     Number of k-points >= 100: set verbosity='high' to print the bands.

     the Fermi energy is    15.6966 ev

!    total energy              =    -941.96927450 Ry
     Harris-Foulkes estimate   =    -941.96927450 Ry
     estimated scf accuracy    <          7.8E-12 Ry

     The total energy is the sum of the following terms:

     one-electron contribution =    -191.79389170 Ry
     hartree contribution      =     139.90795087 Ry
     xc contribution           =    -142.75550307 Ry
     ewald contribution        =    -747.32618556 Ry
     smearing contrib. (-TS)   =      -0.00164505 Ry

     convergence has been achieved in  28 iterations

     Forces acting on atoms (cartesian axes, Ry/au):

     atom    1 type  2   force =     0.00056773   -0.00032778    0.00000000
     atom    2 type  1   force =    -0.00007940    0.00204898    0.00000000
     atom    3 type  1   force =    -0.00279655   -0.00045797    0.00000000
     atom    4 type  1   force =     0.00156496   -0.00090353    0.00000000
     atom    5 type  1   force =     0.00276671   -0.00159736    0.00000000
     atom    6 type  1   force =    -0.00181417   -0.00095573    0.00000000
     atom    7 type  1   force =    -0.00100166    0.00265087    0.00000000
     atom    8 type  1   force =     0.00079237   -0.00045748    0.00000000

     Total force =     0.006262     Total SCF correction =     0.000006

     Computing stress (Cartesian axis) and pressure

          total   stress  (Ry/bohr**3)                   (kbar)     P= -108.25
  -0.00088307  -0.00000233   0.00000000       -129.90     -0.34      0.00
  -0.00000233  -0.00088576   0.00000000         -0.34   -130.30      0.00
   0.00000000   0.00000000  -0.00043868          0.00      0.00    -64.53

     BFGS Geometry Optimization

     number of scf cycles    =   1
     number of bfgs steps    =   0

     enthalpy new            =    -941.9692745004 Ry

     new trust radius        =       0.1453961762 bohr
     new conv_thr            =            1.0E-10 Ry

     new unit-cell volume =   1019.35330 a.u.^3 (   151.05257 Ang^3 )
     density =      7.67552 g/cm^3

CELL_PARAMETERS (alat=  1.88972599)
   0.000000000   0.000000000  -4.917927504
  -4.466823718   2.578922061   0.000000000
   2.977473425   5.157135622   0.000000000

ATOMIC_POSITIONS (angstrom)
Ti      -2.977793199   5.157320243  -4.917927504
Nb      -2.978024404   3.439445031  -2.458963752
Nb      -0.001753975   5.157075852  -4.917927504
Nb       0.000606851   3.437740050  -2.458963752
Nb      -1.487918484   7.735231029  -4.917927504
Nb      -1.490185334   6.016458079  -2.458963752
Nb      -1.489561938   2.580116683  -4.917927504
Nb       1.488943739   6.016538699  -2.458963752

     NEW-OLD atomic charge density approx. for the potential

     Check: negative/imaginary core charge=   -0.000001    0.000000
     extrapolated charge   97.15369, renormalised to  103.00000

[...]

     iteration #  1     ecut=    40.00 Ry     beta= 0.60
     Davidson diagonalization with overlap
     c_bands:  1 eigenvalues not converged
     c_bands:  1 eigenvalues not converged
     c_bands:  1 eigenvalues not converged
     c_bands:  1 eigenvalues not converged
     c_bands:  1 eigenvalues not converged
     c_bands:  1 eigenvalues not converged
     c_bands:  1 eigenvalues not converged
     c_bands:  1 eigenvalues not converged
     c_bands:  1 eigenvalues not converged
     c_bands:  1 eigenvalues not converged
     c_bands:  1 eigenvalues not converged
     c_bands:  1 eigenvalues not converged
     c_bands:  1 eigenvalues not converged
     c_bands:  1 eigenvalues not converged
     c_bands:  1 eigenvalues not converged
     c_bands:  1 eigenvalues not converged
     c_bands:  1 eigenvalues not converged
     c_bands:  1 eigenvalues not converged
     c_bands:  1 eigenvalues not converged
     c_bands:  1 eigenvalues not converged
     c_bands:  1 eigenvalues not converged
     c_bands:  1 eigenvalues not converged
     c_bands:  1 eigenvalues not converged
     ethr =  1.00E-06,  avg # of iterations = 14.4

[...]

     enthalpy old            =    -941.9692745004 Ry
     enthalpy new            =    -942.0025680786 Ry

     CASE: enthalpy_new < enthalpy_old

[...]

     NEW-OLD atomic charge density approx. for the potential
     extrapolated charge  104.07276, renormalised to  103.00000

[...]

     Threshold (ethr) on eigenvalues was too large:
     Diagonalizing with lowered threshold

     Davidson diagonalization with overlap
     ethr =  8.89E-08,  avg # of iterations =  1.2

[...]

     WARNING: bfgs curvature condition failed, Theta= 0.660
     new trust radius        =       0.0156182922 bohr
     new conv_thr            =            1.0E-10 Ry

[...]

     WARNING: info= 29 for Hessian

[...]

     CASE: enthalpy_new > enthalpy_old

[...]

     WARNING: info=  6 for Hessian

[...]

     CASE: enthalpy_new > enthalpy_old

     new trust radius        =       0.0000014240 bohr

     trust_radius < trust_radius_min

     resetting bfgs history

     new conv_thr            =            4.3E-11 Ry

[...]

     WARNING: bfgs curvature condition failed, Theta= 0.939
     new trust radius        =       0.0716065450 bohr
     new conv_thr            =            1.0E-10 Ry

[...]

     NEW-OLD atomic charge density approx. for the potential

     Check: negative/imaginary core charge=   -0.000001    0.000000
     extrapolated charge  102.02037, renormalised to  103.00000

[...]

     iteration #  1     ecut=    40.00 Ry     beta= 0.60
     Davidson diagonalization with overlap
     c_bands:  1 eigenvalues not converged
     c_bands:  1 eigenvalues not converged
     c_bands:  1 eigenvalues not converged
     c_bands:  1 eigenvalues not converged
     c_bands:  1 eigenvalues not converged
     c_bands:  1 eigenvalues not converged
     c_bands:  1 eigenvalues not converged
     ethr =  1.00E-06,  avg # of iterations =  8.2

[...]

     Self-consistent Calculation

[...]

     Threshold (ethr) on eigenvalues was too large:
     Diagonalizing with lowered threshold

     Davidson diagonalization with overlap
     ethr =  2.62E-09,  avg # of iterations =  3.3

[...]

     total energy              =    -942.17103012 Ry
     Harris-Foulkes estimate   =    -942.17103012 Ry
     estimated scf accuracy    <          9.2E-11 Ry

     iteration # 13     ecut=    40.00 Ry     beta= 0.60
     Davidson diagonalization with overlap
     ethr =  1.00E-13,  avg # of iterations =  3.2

     End of self-consistent calculation

     Number of k-points >= 100: set verbosity='high' to print the bands.

     the Fermi energy is    17.3868 ev

!    total energy              =    -942.17103012 Ry
     Harris-Foulkes estimate   =    -942.17103012 Ry
     estimated scf accuracy    <          8.7E-11 Ry

     The total energy is the sum of the following terms:

     one-electron contribution =    -153.28163448 Ry
     hartree contribution      =     129.12104323 Ry
     xc contribution           =    -143.62948971 Ry
     ewald contribution        =    -774.38065036 Ry
     smearing contrib. (-TS)   =      -0.00029881 Ry

     convergence has been achieved in  13 iterations

     Forces acting on atoms (cartesian axes, Ry/au):

     atom    1 type  2   force =    -0.00010101    0.00005832    0.00000000
     atom    2 type  1   force =     0.00054855    0.00027614    0.00000000
     atom    3 type  1   force =     0.00043024    0.00027088    0.00000000
     atom    4 type  1   force =    -0.00003835    0.00002214    0.00000000
     atom    5 type  1   force =    -0.00075895    0.00043818    0.00000000
     atom    6 type  1   force =     0.00003513   -0.00061313    0.00000000
     atom    7 type  1   force =    -0.00001947   -0.00050804    0.00000000
     atom    8 type  1   force =    -0.00009614    0.00005551    0.00000000

     Total force =     0.001438     Total SCF correction =     0.000051

     Computing stress (Cartesian axis) and pressure

          total   stress  (Ry/bohr**3)                   (kbar)     P=    0.08
   0.00000191   0.00000220   0.00000000          0.28      0.32      0.00
   0.00000220   0.00000446   0.00000000          0.32      0.66      0.00
   0.00000000   0.00000000  -0.00000465          0.00      0.00     -0.68

     number of scf cycles    =  50
     number of bfgs steps    =  44

     enthalpy old            =    -942.1710255238 Ry
     enthalpy new            =    -942.1710301211 Ry

     CASE: enthalpy_new < enthalpy_old

     new trust radius        =       0.0019419470 bohr
     new conv_thr            =            7.6E-11 Ry

     new unit-cell volume =    968.62918 a.u.^3 (   143.53603 Ang^3 )
     density =      8.07747 g/cm^3

CELL_PARAMETERS (alat=  1.88972599)
   0.000000000   0.000000000  -4.669204326
  -4.044438241   2.335057711   0.000000000
   3.291247652   5.700608496   0.000000000

ATOMIC_POSITIONS (angstrom)
Ti      -2.061665085   4.990708719  -4.669204326
Nb      -2.891430186   3.555094281  -2.334602163
Nb       0.788120302   5.256954099  -4.669204326
Nb      -0.040558674   3.823822221  -2.334602163
Nb      -0.414331957   7.840026102  -4.669204326
Nb      -1.233269190   6.427113538  -2.334602163
Nb      -0.867347669   2.389599293  -4.669204326
Nb       1.606388830   6.673362243  -2.334602163

     NEW-OLD atomic charge density approx. for the potential
     extrapolated charge  102.99790, renormalised to  103.00000

     General routines

     Parallel routines

      23h

   This run was terminated on:  18:55: 8   5Feb2020

   JOB DONE.