     Program PWSCF v.6.0 (svn rev. 13079) starts on 11Mar2018 at 10:47:50

     Current dimensions of program PWSCF are:
     Max number of different atomic species (ntypx) = 10
     Max number of k-points (npk) =  40000
     Max angular momentum in pseudopotentials (lmaxx) =  3

     Subspace diagonalization in iterative solution of the eigenvalue problem:
     a serial algorithm will be used

     bravais-lattice index     =            0
     lattice parameter (alat)  =       1.8897  a.u.
     unit-cell volume          =     538.8952 (a.u.)^3
     number of atoms/cell      =            4
     number of atomic types    =            2
     number of electrons       =        49.00
     number of Kohn-Sham states=           30
     kinetic-energy cutoff     =      33.0700  Ry
     charge density cutoff     =     330.7000  Ry
     convergence threshold     =      1.0E-10
     mixing beta               =       0.6000
     number of iterations used =            8  plain     mixing
     Exchange-correlation      = SLA  PW   PBE  PBE ( 1  4  3  4 0 0)
     nstep                     =           50

     celldm(1)=   1.889726  celldm(2)=   0.000000  celldm(3)=   0.000000
     celldm(4)=   0.000000  celldm(5)=   0.000000  celldm(6)=   0.000000

     crystal axes: (cart. coord. in units of alat)
               a(1) = (   1.522502  -2.637051  -4.972461 )
               a(2) = (  -1.522502   2.637051  -4.972461 )
               a(3) = (   3.045004   0.000000   4.972461 )

     reciprocal axes: (cart. coord. in units 2 pi/alat)
               b(1) = (  0.164203 -0.094803 -0.100554 )
               b(2) = (  0.164203  0.284409 -0.100554 )
               b(3) = (  0.328407  0.189606  0.000000 )

     PseudoPot. # 1 for Nb read from file:
     ./Nb.pbe-nsp-van.UPF
     MD5 check sum: 2636d8d3a061c4aefa0a317108b12435
     Pseudo is Ultrasoft + core correction, Zval = 13.0
     Generated by new atomic code, or converted to UPF format
     Using radial grid of  887 points,  6 beta functions with:
                l(1) =   0
                l(2) =   0
                l(3) =   1
                l(4) =   1
                l(5) =   2
                l(6) =   2
     Q(r) pseudized with  6 coefficients,  rinner =    1.000   1.000   1.000
                                                       1.000   1.000

     PseudoPot. # 2 for Ti read from file:
     ./Ti.pbe-sp-van_ak.UPF
     MD5 check sum: 8e4df49b7f0d34bbd5052bf3f5ea0213
     Pseudo is Ultrasoft, Zval = 12.0
     Generated by new atomic code, or converted to UPF format
     Using radial grid of  851 points,  6 beta functions with:
                l(1) =   0
                l(2) =   0
                l(3) =   1
                l(4) =   1
                l(5) =   2
                l(6) =   2
     Q(r) pseudized with  8 coefficients,  rinner =    1.000   1.000   1.000
                                                       1.000   1.000

     atomic species   valence    mass     pseudopotential
        Nb            13.00    92.90600     Nb( 1.00)
        Ti            12.00    47.86700     Ti( 1.00)

      4 Sym. Ops. (no inversion) found ( 2 have fractional translation)

   Cartesian axes

     site n.     atom                  positions (alat units)
         1           Ti  tau(   1) = (   3.0450042   0.0000000  -4.9724614  )
         2           Ti  tau(   2) = (   1.5225036   0.8790162  -2.4862307  )
         3           Ti  tau(   3) = (   3.0450042   0.0000000   0.0000000  )
         4           Nb  tau(   4) = (   3.0450058  -1.7580350  -2.4862307  )

     number of k points=   216  Marzari-Vanderbilt smearing, width (Ry)=  0.2000

     Number of k-points >= 100: set verbosity='high' to print them.

     Check: negative/imaginary core charge=   -0.000001    0.000000

     Initial potential from superposition of free atoms

     starting charge   45.99713, renormalised to   49.00000
     Starting wfc are   43 randomized atomic wfcs

     Self-consistent Calculation

     iteration #  1     ecut=    33.07 Ry     beta=0.60
     Davidson diagonalization with overlap
     ethr =  1.00E-02,  avg # of iterations =  3.6

     total energy              =    -464.83868058 Ry
     Harris-Foulkes estimate   =    -469.33201011 Ry
     estimated scf accuracy    <       5.81032781 Ry

[...]

     iteration # 12     ecut=    33.07 Ry     beta=0.60
     Davidson diagonalization with overlap
     c_bands:  1 eigenvalues not converged
     c_bands:  1 eigenvalues not converged
     ethr =  5.14E-08,  avg # of iterations =  5.3

[...]

     End of self-consistent calculation

     Number of k-points >= 100: set verbosity='high' to print the bands.

     the Fermi energy is    12.8193 ev

!    total energy              =    -467.98473171 Ry
     Harris-Foulkes estimate   =    -467.98473171 Ry
     estimated scf accuracy    <          9.6E-12 Ry

     The total energy is the sum of the following terms:

     one-electron contribution =    -163.40819402 Ry
     hartree contribution      =      95.87234902 Ry
     xc contribution           =     -61.68076244 Ry
     ewald contribution        =    -338.35127281 Ry
     smearing contrib. (-TS)   =      -0.41685146 Ry

     convergence has been achieved in  33 iterations

     Forces acting on atoms (Ry/au):

     atom    1 type  2   force =     0.00037022   -0.00021374    0.00092081
     atom    2 type  2   force =    -0.00020888    0.00012060    0.00000000
     atom    3 type  2   force =     0.00037022   -0.00021374   -0.00092081
     atom    4 type  1   force =    -0.00053155    0.00030689    0.00000000

     Total force =     0.001580     Total SCF correction =     0.000015

     entering subroutine stress ...

          total   stress  (Ry/bohr**3)                   (kbar)     P=  -57.57
  -0.00039798  -0.00001281  -0.00000000        -58.54     -1.88     -0.00
  -0.00001281  -0.00041277  -0.00000000         -1.88    -60.72     -0.00
  -0.00000000  -0.00000000  -0.00036328         -0.00     -0.00    -53.44

     BFGS Geometry Optimization

     number of scf cycles    =   1
     number of bfgs steps    =   0

     enthalpy new            =    -467.9847317078 Ry

     new trust radius        =       0.0479339760 bohr
     new conv_thr            =            1.0E-10 Ry

     new unit-cell volume =    523.23215 a.u.^3 (    77.53500 Ang^3 )

CELL_PARAMETERS (alat=  1.88972599)
   1.508198634  -2.610326055  -4.927301376
  -1.508198634   2.610326055  -4.927301376
   3.014707834  -0.000975395   4.927301376

ATOMIC_POSITIONS (angstrom)
Ti       3.014901831  -0.001087399  -4.926818531
Ti       1.506964395   0.869520747  -2.463650688
Ti       3.014901831  -0.001087399  -0.000482846
Nb       3.014993951  -1.740707691  -2.463650688

     NEW-OLD atomic charge density approx. for the potential

     Check: negative/imaginary core charge=   -0.000001    0.000000
     extrapolated charge   47.62307, renormalised to   49.00000

[...]

     enthalpy old            =    -467.9847317078 Ry
     enthalpy new            =    -467.9896090860 Ry

     CASE: enthalpy_new < enthalpy_old

[...]

     NEW-OLD atomic charge density approx. for the potential
     extrapolated charge   47.19825, renormalised to   49.00000

[...]

     Threshold (ethr) on eigenvalues was too large:
     Diagonalizing with lowered threshold

     Davidson diagonalization with overlap
     ethr =  1.73E-08,  avg # of iterations =  4.6

[...]

     Davidson diagonalization with overlap
     c_bands:  1 eigenvalues not converged
     ethr =  2.37E-08,  avg # of iterations =  6.6

[...]

     WARNING: bfgs curvature condition failed, Theta= 0.944
     new trust radius        =       0.0003197895 bohr
     new conv_thr            =            1.5E-11 Ry

[...]

     WARNING: bfgs curvature condition failed, Theta= 0.573
     uphill step: resetting bfgs history

[...]

     WARNING: bfgs curvature condition failed, Theta= 0.535
     uphill step: resetting bfgs history

[...]

     WARNING: bfgs curvature condition failed, Theta= 0.064
     new trust radius        =       0.0099825045 bohr
     new conv_thr            =            2.9E-11 Ry

[...]

     small trust_radius: resetting bfgs history

[...]

     Davidson diagonalization with overlap
     ethr =  8.84E-11,  avg # of iterations =  3.1

[...]

     number of scf cycles    =  44
     number of bfgs steps    =  43

     enthalpy old            =    -467.9917546350 Ry
     enthalpy new            =    -467.9917546395 Ry

     CASE: enthalpy_new < enthalpy_old

     Message from routine bfgs:
     history already reset at previous step: stopping
     small trust_radius: resetting bfgs history

     new trust radius        =       0.0000310755 bohr
     new conv_thr            =            1.7E-12 Ry

     new unit-cell volume =    505.52259 a.u.^3 (    74.91072 Ang^3 )

[...]

ATOMIC_POSITIONS (angstrom)
Ti       2.966856670  -0.018299020  -4.890480466
Ti       1.513472862   0.820812576  -2.445410909
Ti       2.966856670  -0.018299020  -0.000341351
Nb       3.039373016  -1.754782950  -2.445410909

     NEW-OLD atomic charge density approx. for the potential

     Check: negative/imaginary core charge=   -0.000001    0.000000
     extrapolated charge   48.99991, renormalised to   49.00000

[...]

     Threshold (ethr) on eigenvalues was too large:
     Diagonalizing with lowered threshold

     Davidson diagonalization with overlap
     c_bands:  1 eigenvalues not converged
     c_bands:  1 eigenvalues not converged
     c_bands:  1 eigenvalues not converged
     c_bands:  1 eigenvalues not converged
     c_bands:  1 eigenvalues not converged
     c_bands:  1 eigenvalues not converged
     c_bands:  1 eigenvalues not converged
     c_bands:  1 eigenvalues not converged
     c_bands:  1 eigenvalues not converged
     c_bands:  1 eigenvalues not converged
     c_bands:  1 eigenvalues not converged
     c_bands:  1 eigenvalues not converged
     ethr =  1.87E-12,  avg # of iterations =  6.2

[...]

     bfgs converged in  45 scf cycles and  44 bfgs steps
     (criteria: energy <  1.0E-10, force <  1.0E-05, cell <  1.0E-03)

     End of BFGS Geometry Optimization

     Final enthalpy =    -467.9917546423 Ry
Begin final coordinates
     new unit-cell volume =    505.52259 a.u.^3 (    74.91072 Ang^3 )

CELL_PARAMETERS (alat=  1.88972599)
   1.525805403  -2.575540822  -4.890821817
  -1.525805403   2.575540822  -4.890821817
   2.993386321  -0.033615920   4.890821817

ATOMIC_POSITIONS (angstrom)
Ti       2.966856670  -0.018299020  -4.890480466
Ti       1.513472862   0.820812576  -2.445410909
Ti       2.966856670  -0.018299020  -0.000341351
Nb       3.039373016  -1.754782950  -2.445410909
End final coordinates

     A final scf calculation at the relaxed structure.
     The G-vectors are recalculated for the final unit cell
     Results may differ from those at the preceding step.

   Info: using nr1, nr2, nr3 values from input

   Info: using nr1, nr2, nr3 values from input

     bravais-lattice index     =            0
     lattice parameter (alat)  =       1.8897  a.u.
     unit-cell volume          =     505.5226 (a.u.)^3
     number of atoms/cell      =            4
     number of atomic types    =            2
     number of electrons       =        49.00
     number of Kohn-Sham states=           30
     kinetic-energy cutoff     =      33.0700  Ry
     charge density cutoff     =     330.7000  Ry
     convergence threshold     =      1.7E-12
     mixing beta               =       0.6000
     number of iterations used =            8  plain     mixing
     Exchange-correlation      = SLA  PW   PBE  PBE ( 1  4  3  4 0 0)

     celldm(1)=   1.889726  celldm(2)=   0.000000  celldm(3)=   0.000000
     celldm(4)=   0.000000  celldm(5)=   0.000000  celldm(6)=   0.000000

     crystal axes: (cart. coord. in units of alat)
               a(1) = (   1.525805  -2.575541  -4.890822 )
               a(2) = (  -1.525805   2.575541  -4.890822 )
               a(3) = (   2.993386  -0.033616   4.890822 )

     reciprocal axes: (cart. coord. in units 2 pi/alat)
               b(1) = (  0.165959 -0.095816 -0.102232 )
               b(2) = (  0.170348  0.295052 -0.102232 )
               b(3) = (  0.336307  0.199236  0.000000 )

     PseudoPot. # 1 for Nb read from file:
     ./Nb.pbe-nsp-van.UPF
     MD5 check sum: 2636d8d3a061c4aefa0a317108b12435
     Pseudo is Ultrasoft + core correction, Zval = 13.0
     Generated by new atomic code, or converted to UPF format
     Using radial grid of  887 points,  6 beta functions with:
                l(1) =   0
                l(2) =   0
                l(3) =   1
                l(4) =   1
                l(5) =   2
                l(6) =   2
     Q(r) pseudized with  6 coefficients,  rinner =    1.000   1.000   1.000
                                                       1.000   1.000

     PseudoPot. # 2 for Ti read from file:
     ./Ti.pbe-sp-van_ak.UPF
     MD5 check sum: 8e4df49b7f0d34bbd5052bf3f5ea0213
     Pseudo is Ultrasoft, Zval = 12.0
     Generated by new atomic code, or converted to UPF format
     Using radial grid of  851 points,  6 beta functions with:
                l(1) =   0
                l(2) =   0
                l(3) =   1
                l(4) =   1
                l(5) =   2
                l(6) =   2
     Q(r) pseudized with  8 coefficients,  rinner =    1.000   1.000   1.000
                                                       1.000   1.000

     atomic species   valence    mass     pseudopotential
        Nb            13.00    92.90600     Nb( 1.00)
        Ti            12.00    47.86700     Ti( 1.00)

      4 Sym. Ops. (no inversion) found ( 2 have fractional translation)

   Cartesian axes

     site n.     atom                  positions (alat units)
         1           Ti  tau(   1) = (   2.9668569  -0.0182990  -4.8904808  )
         2           Ti  tau(   2) = (   1.5134730   0.8208126  -2.4454111  )
         3           Ti  tau(   3) = (   2.9668569  -0.0182990  -0.0003414  )
         4           Nb  tau(   4) = (   3.0393732  -1.7547831  -2.4454111  )

     number of k points=   216  Marzari-Vanderbilt smearing, width (Ry)=  0.2000

     Number of k-points >= 100: set verbosity='high' to print them.

     Check: negative/imaginary core charge=   -0.000001    0.000000

     Initial potential from superposition of free atoms

     starting charge   45.99713, renormalised to   49.00000
     Starting wfc are   43 randomized atomic wfcs

     Self-consistent Calculation

[...]

     iteration # 34     ecut=    33.07 Ry     beta=0.60
     Davidson diagonalization with overlap
     ethr =  8.40E-13,  avg # of iterations =  5.1

     total energy              =    -467.98639822 Ry
     Harris-Foulkes estimate   =    -467.98639822 Ry
     estimated scf accuracy    <          2.2E-11 Ry

     iteration # 35     ecut=    33.07 Ry     beta=0.60
     Davidson diagonalization with overlap
     c_bands:  1 eigenvalues not converged
     ethr =  1.00E-13,  avg # of iterations =  4.9

     End of self-consistent calculation

     Number of k-points >= 100: set verbosity='high' to print the bands.

     the Fermi energy is    13.7852 ev

!    total energy              =    -467.98639822 Ry
     Harris-Foulkes estimate   =    -467.98639822 Ry
     estimated scf accuracy    <          1.2E-12 Ry

     The total energy is the sum of the following terms:

     one-electron contribution =    -152.51848909 Ry
     hartree contribution      =      92.41257974 Ry
     xc contribution           =     -61.86583947 Ry
     ewald contribution        =    -345.62603286 Ry
     smearing contrib. (-TS)   =      -0.38861655 Ry

     convergence has been achieved in  35 iterations

     Forces acting on atoms (Ry/au):

     atom    1 type  2   force =     0.00000680   -0.00000393    0.00004737
     atom    2 type  2   force =    -0.00000800    0.00000462    0.00000000
     atom    3 type  2   force =     0.00000680   -0.00000393   -0.00004737
     atom    4 type  1   force =    -0.00000561    0.00000324    0.00000000

     Total force =     0.000069     Total SCF correction =     0.000001

     entering subroutine stress ...

          total   stress  (Ry/bohr**3)                   (kbar)     P=   -0.90
  -0.00000493  -0.00000371   0.00000000         -0.73     -0.55      0.00
  -0.00000371  -0.00000922  -0.00000000         -0.55     -1.36     -0.00
   0.00000000  -0.00000000  -0.00000429          0.00     -0.00     -0.63

     General routines

     Parallel routines

   This run was terminated on:  15:47:40  11Mar2018

   JOB DONE.