     Program PWSCF v.6.0 (svn rev. 13079) starts on 10Mar2018 at 18:11:52

     Current dimensions of program PWSCF are:
     Max number of different atomic species (ntypx) = 10
     Max number of k-points (npk) =  40000
     Max angular momentum in pseudopotentials (lmaxx) =  3

     Subspace diagonalization in iterative solution of the eigenvalue problem:
     a serial algorithm will be used

     bravais-lattice index     =            0
     lattice parameter (alat)  =       1.8897  a.u.
     unit-cell volume          =     538.8952 (a.u.)^3
     number of atoms/cell      =            4
     number of atomic types    =            2
     number of electrons       =        51.00
     number of Kohn-Sham states=           31
     kinetic-energy cutoff     =      33.0700  Ry
     charge density cutoff     =     330.7000  Ry
     convergence threshold     =      1.0E-10
     mixing beta               =       0.6000
     number of iterations used =            8  plain     mixing
     Exchange-correlation      = SLA  PW   PBE  PBE ( 1  4  3  4 0 0)
     nstep                     =           50

     celldm(1)=   1.889726  celldm(2)=   0.000000  celldm(3)=   0.000000
     celldm(4)=   0.000000  celldm(5)=   0.000000  celldm(6)=   0.000000

     crystal axes: (cart. coord. in units of alat)
               a(1) = (   1.522502  -2.637051  -4.972461 )
               a(2) = (  -1.522502   2.637051  -4.972461 )
               a(3) = (   3.045004   0.000000   4.972461 )

     reciprocal axes: (cart. coord. in units 2 pi/alat)
               b(1) = (  0.164203 -0.094803 -0.100554 )
               b(2) = (  0.164203  0.284409 -0.100554 )
               b(3) = (  0.328407  0.189606  0.000000 )

     PseudoPot. # 1 for Nb read from file:
     ./Nb.pbe-nsp-van.UPF
     MD5 check sum: 2636d8d3a061c4aefa0a317108b12435
     Pseudo is Ultrasoft + core correction, Zval = 13.0
     Generated by new atomic code, or converted to UPF format
     Using radial grid of  887 points,  6 beta functions with:
                l(1) =   0
                l(2) =   0
                l(3) =   1
                l(4) =   1
                l(5) =   2
                l(6) =   2
     Q(r) pseudized with  6 coefficients,  rinner =    1.000   1.000   1.000
                                                       1.000   1.000

     PseudoPot. # 2 for Ti read from file:
     ./Ti.pbe-sp-van_ak.UPF
     MD5 check sum: 8e4df49b7f0d34bbd5052bf3f5ea0213
     Pseudo is Ultrasoft, Zval = 12.0
     Generated by new atomic code, or converted to UPF format
     Using radial grid of  851 points,  6 beta functions with:
                l(1) =   0
                l(2) =   0
                l(3) =   1
                l(4) =   1
                l(5) =   2
                l(6) =   2
     Q(r) pseudized with  8 coefficients,  rinner =    1.000   1.000   1.000
                                                       1.000   1.000

     atomic species   valence    mass     pseudopotential
        Nb            13.00    92.90600     Nb( 1.00)
        Ti            12.00    47.86700     Ti( 1.00)

      4 Sym. Ops. (no inversion) found

   Cartesian axes

     site n.     atom                  positions (alat units)
         1           Ti  tau(   1) = (   3.0450042   0.0000000  -4.9724614  )
         2           Nb  tau(   2) = (   1.5225036   0.8790162  -2.4862307  )
         3           Nb  tau(   3) = (   3.0450042   0.0000000   0.0000000  )
         4           Nb  tau(   4) = (   3.0450058  -1.7580350  -2.4862307  )

     number of k points=   216  Marzari-Vanderbilt smearing, width (Ry)=  0.2000

     Number of k-points >= 100: set verbosity='high' to print them.

     Check: negative/imaginary core charge=   -0.000002    0.000000

     Initial potential from superposition of free atoms

     starting charge   49.99176, renormalised to   51.00000
     Starting wfc are   49 randomized atomic wfcs

     Self-consistent Calculation

     iteration #  1     ecut=    33.07 Ry     beta=0.60
     Davidson diagonalization with overlap
     ethr =  1.00E-02,  avg # of iterations =  2.1

     total energy              =    -450.64283017 Ry
     Harris-Foulkes estimate   =    -472.38268640 Ry
     estimated scf accuracy    <      27.17138385 Ry

[...]

     End of self-consistent calculation

     Number of k-points >= 100: set verbosity='high' to print the bands.

     the Fermi energy is    15.2755 ev

!    total energy              =    -470.46704775 Ry
     Harris-Foulkes estimate   =    -470.46704775 Ry
     estimated scf accuracy    <          2.2E-11 Ry

     The total energy is the sum of the following terms:

     one-electron contribution =    -109.49676847 Ry
     hartree contribution      =      75.34392912 Ry
     xc contribution           =     -69.47019271 Ry
     ewald contribution        =    -366.52067571 Ry
     smearing contrib. (-TS)   =      -0.32333999 Ry

     convergence has been achieved in  32 iterations

     Forces acting on atoms (Ry/au):

     atom    1 type  2   force =     0.00014025   -0.00008097    0.00000000
     atom    2 type  1   force =    -0.00011336    0.00006545   -0.00053318
     atom    3 type  1   force =     0.00008647   -0.00004992   -0.00000000
     atom    4 type  1   force =    -0.00011336    0.00006545    0.00053318

     Total force =     0.000799     Total SCF correction =     0.000004

     entering subroutine stress ...

          total   stress  (Ry/bohr**3)                   (kbar)     P=  -42.83
  -0.00029172  -0.00001859   0.00000000        -42.91     -2.73      0.00
  -0.00001859  -0.00031318   0.00000000         -2.73    -46.07      0.00
  -0.00000000   0.00000000  -0.00026848         -0.00      0.00    -39.49

     BFGS Geometry Optimization

     number of scf cycles    =   1
     number of bfgs steps    =   0

     enthalpy new            =    -470.4670477532 Ry

     new trust radius        =       0.0364148616 bohr
     new conv_thr            =            1.0E-10 Ry

     new unit-cell volume =    527.21385 a.u.^3 (    78.12503 Ang^3 )

CELL_PARAMETERS (alat=  1.88972599)
   1.512623962  -2.617111756  -4.939085649
  -1.512623962   2.617111756  -4.939085649
   3.022797088  -0.001414991   4.939085649

ATOMIC_POSITIONS (angstrom)
Ti       3.022870783  -0.001457539  -4.939085649
Nb       1.510932017   0.871460776  -2.469823078
Nb       3.022842525  -0.001441224  -0.000000000
Nb       3.023555980  -1.745650980  -2.469262570

     NEW-OLD atomic charge density approx. for the potential

     Check: negative/imaginary core charge=   -0.000002    0.000000
     extrapolated charge   49.89235, renormalised to   51.00000

[...]

     iteration #  2     ecut=    33.07 Ry     beta=0.60
     Davidson diagonalization with overlap
     c_bands:  1 eigenvalues not converged
     ethr =  3.40E-04,  avg # of iterations =  9.0

[...]

     enthalpy old            =    -470.4670477532 Ry
     enthalpy new            =    -470.4695150152 Ry

     CASE: enthalpy_new < enthalpy_old

[...]

     Threshold (ethr) on eigenvalues was too large:
     Diagonalizing with lowered threshold

     Davidson diagonalization with overlap
     ethr =  4.25E-08,  avg # of iterations =  5.1

[...]

     Davidson diagonalization with overlap
     c_bands:  1 eigenvalues not converged
     c_bands:  1 eigenvalues not converged
     ethr =  1.36E-08,  avg # of iterations =  6.6

[...]

     WARNING: bfgs curvature condition failed, Theta= 0.886
     new trust radius        =       0.0038750489 bohr
     new conv_thr            =            8.3E-11 Ry

[...]

     Total force =     0.000012     Total SCF correction =     0.000003
     SCF correction compared to forces is large: reduce conv_thr to get better values

[...]

     small trust_radius: resetting bfgs history

[...]

     Davidson diagonalization with overlap
     ethr =  1.40E-11,  avg # of iterations =  2.8

[...]

     number of scf cycles    =  25
     number of bfgs steps    =  24

     enthalpy old            =    -470.4702675144 Ry
     enthalpy new            =    -470.4702675146 Ry

     CASE: enthalpy_new < enthalpy_old

     Message from routine bfgs:
     history already reset at previous step: stopping
     small trust_radius: resetting bfgs history

     new trust radius        =       0.0000040419 bohr
     new conv_thr            =            1.0E-12 Ry

     new unit-cell volume =    518.92716 a.u.^3 (    76.89707 Ang^3 )

[...]

ATOMIC_POSITIONS (angstrom)
Ti       2.992342710  -0.019763596  -4.929379105
Nb       1.532095963   0.823310319  -2.463560646
Nb       2.990951802  -0.018960555  -0.000000000
Nb       3.076082764  -1.775977331  -2.465818459

     NEW-OLD atomic charge density approx. for the potential

     Check: negative/imaginary core charge=   -0.000002    0.000000
     extrapolated charge   51.00001, renormalised to   51.00000

[...]

     Threshold (ethr) on eigenvalues was too large:
     Diagonalizing with lowered threshold

     Davidson diagonalization with overlap
     c_bands:  1 eigenvalues not converged
     ethr =  6.33E-14,  avg # of iterations =  5.4

[...]

     Total force =     0.000002     Total SCF correction =     0.000002
     SCF correction compared to forces is large: reduce conv_thr to get better values

[...]

     bfgs converged in  26 scf cycles and  25 bfgs steps
     (criteria: energy <  1.0E-10, force <  1.0E-05, cell <  1.0E-03)

     End of BFGS Geometry Optimization

     Final enthalpy =    -470.4702675145 Ry
Begin final coordinates
     new unit-cell volume =    518.92716 a.u.^3 (    76.89707 Ang^3 )

CELL_PARAMETERS (alat=  1.88972599)
   1.543986801  -2.599287650  -4.929379105
  -1.543986801   2.599287650  -4.929379105
   3.023042378  -0.037488057   4.929379105

ATOMIC_POSITIONS (angstrom)
Ti       2.992342710  -0.019763596  -4.929379105
Nb       1.532095963   0.823310319  -2.463560646
Nb       2.990951802  -0.018960555  -0.000000000
Nb       3.076082764  -1.775977331  -2.465818459
End final coordinates

     A final scf calculation at the relaxed structure.
     The G-vectors are recalculated for the final unit cell
     Results may differ from those at the preceding step.

   Info: using nr1, nr2, nr3 values from input

   Info: using nr1, nr2, nr3 values from input

     bravais-lattice index     =            0
     lattice parameter (alat)  =       1.8897  a.u.
     unit-cell volume          =     518.9272 (a.u.)^3
     number of atoms/cell      =            4
     number of atomic types    =            2
     number of electrons       =        51.00
     number of Kohn-Sham states=           31
     kinetic-energy cutoff     =      33.0700  Ry
     charge density cutoff     =     330.7000  Ry
     convergence threshold     =      1.0E-12
     mixing beta               =       0.6000
     number of iterations used =            8  plain     mixing
     Exchange-correlation      = SLA  PW   PBE  PBE ( 1  4  3  4 0 0)

     celldm(1)=   1.889726  celldm(2)=   0.000000  celldm(3)=   0.000000
     celldm(4)=   0.000000  celldm(5)=   0.000000  celldm(6)=   0.000000

     crystal axes: (cart. coord. in units of alat)
               a(1) = (   1.543987  -2.599288  -4.929379 )
               a(2) = (  -1.543987   2.599288  -4.929379 )
               a(3) = (   3.023042  -0.037488   4.929379 )

     reciprocal axes: (cart. coord. in units 2 pi/alat)
               b(1) = (  0.164221 -0.094813 -0.101433 )
               b(2) = (  0.169027  0.292763 -0.101433 )
               b(3) = (  0.333247  0.197950  0.000000 )

     PseudoPot. # 1 for Nb read from file:
     ./Nb.pbe-nsp-van.UPF
     MD5 check sum: 2636d8d3a061c4aefa0a317108b12435
     Pseudo is Ultrasoft + core correction, Zval = 13.0
     Generated by new atomic code, or converted to UPF format
     Using radial grid of  887 points,  6 beta functions with:
                l(1) =   0
                l(2) =   0
                l(3) =   1
                l(4) =   1
                l(5) =   2
                l(6) =   2
     Q(r) pseudized with  6 coefficients,  rinner =    1.000   1.000   1.000
                                                       1.000   1.000

     PseudoPot. # 2 for Ti read from file:
     ./Ti.pbe-sp-van_ak.UPF
     MD5 check sum: 8e4df49b7f0d34bbd5052bf3f5ea0213
     Pseudo is Ultrasoft, Zval = 12.0
     Generated by new atomic code, or converted to UPF format
     Using radial grid of  851 points,  6 beta functions with:
                l(1) =   0
                l(2) =   0
                l(3) =   1
                l(4) =   1
                l(5) =   2
                l(6) =   2
     Q(r) pseudized with  8 coefficients,  rinner =    1.000   1.000   1.000
                                                       1.000   1.000

     atomic species   valence    mass     pseudopotential
        Nb            13.00    92.90600     Nb( 1.00)
        Ti            12.00    47.86700     Ti( 1.00)

      4 Sym. Ops. (no inversion) found

   Cartesian axes

     site n.     atom                  positions (alat units)
         1           Ti  tau(   1) = (   2.9923429  -0.0197636  -4.9293795  )
         2           Nb  tau(   2) = (   1.5320961   0.8233104  -2.4635608  )
         3           Nb  tau(   3) = (   2.9909520  -0.0189606  -0.0000000  )
         4           Nb  tau(   4) = (   3.0760830  -1.7759775  -2.4658186  )

     number of k points=   216  Marzari-Vanderbilt smearing, width (Ry)=  0.2000

     Number of k-points >= 100: set verbosity='high' to print them.

     Check: negative/imaginary core charge=   -0.000002    0.000000

     Initial potential from superposition of free atoms

     starting charge   49.99176, renormalised to   51.00000
     Starting wfc are   49 randomized atomic wfcs

     Self-consistent Calculation

[...]

     iteration # 19     ecut=    33.07 Ry     beta=0.60
     Davidson diagonalization with overlap
     c_bands:  1 eigenvalues not converged
     ethr =  1.78E-09,  avg # of iterations =  2.6

[...]

     total energy              =    -470.46893182 Ry
     Harris-Foulkes estimate   =    -470.46893182 Ry
     estimated scf accuracy    <          2.6E-12 Ry

     iteration # 28     ecut=    33.07 Ry     beta=0.60
     Davidson diagonalization with overlap
     ethr =  1.00E-13,  avg # of iterations =  1.0

     End of self-consistent calculation

     Number of k-points >= 100: set verbosity='high' to print the bands.

     the Fermi energy is    15.9381 ev

!    total energy              =    -470.46893182 Ry
     Harris-Foulkes estimate   =    -470.46893182 Ry
     estimated scf accuracy    <          9.6E-13 Ry

     The total energy is the sum of the following terms:

     one-electron contribution =    -102.80190963 Ry
     hartree contribution      =      73.38928952 Ry
     xc contribution           =     -69.60729023 Ry
     ewald contribution        =    -371.14898945 Ry
     smearing contrib. (-TS)   =      -0.30003202 Ry

     convergence has been achieved in  28 iterations

     Forces acting on atoms (Ry/au):

     atom    1 type  2   force =    -0.00000276    0.00000159    0.00000000
     atom    2 type  1   force =     0.00000104   -0.00000060   -0.00000495
     atom    3 type  1   force =     0.00000069   -0.00000040    0.00000000
     atom    4 type  1   force =     0.00000104   -0.00000060    0.00000495

     Total force =     0.000008     Total SCF correction =     0.000001

     entering subroutine stress ...

          total   stress  (Ry/bohr**3)                   (kbar)     P=   -1.33
  -0.00000728  -0.00000393  -0.00000000         -1.07     -0.58     -0.00
  -0.00000393  -0.00001182   0.00000000         -0.58     -1.74      0.00
  -0.00000000   0.00000000  -0.00000798         -0.00      0.00     -1.17

     General routines

     Parallel routines

   This run was terminated on:  20:48:26  10Mar2018

   JOB DONE.