     Program PWSCF v.6.3MaX starts on  5Feb2020 at  9:23: 2

     R & G space division:  proc/nbgrp/npool/nimage =       4
     Waiting for input...
     Reading input from standard input

     Current dimensions of program PWSCF are:
     Max number of different atomic species (ntypx) = 10
     Max number of k-points (npk) =  40000
     Max angular momentum in pseudopotentials (lmaxx) =  3
     Message from routine iosys:
     minimal I/O required, wf_collect reset to FALSE

     Subspace diagonalization in iterative solution of the eigenvalue problem:
     a serial algorithm will be used

     bravais-lattice index     =            0
     lattice parameter (alat)  =       1.8897  a.u.
     unit-cell volume          =     880.0102 (a.u.)^3
     number of atoms/cell      =            6
     number of atomic types    =            2
     number of electrons       =        74.00
     number of Kohn-Sham states=           44
     kinetic-energy cutoff     =      50.0000  Ry
     charge density cutoff     =     500.0000  Ry
     convergence threshold     =      1.0E-10
     mixing beta               =       0.6000
     number of iterations used =            8  plain     mixing
     Exchange-correlation      = SLA PW PBE PBE ( 1  4  3  4 0 0)
     nstep                     =           50

     celldm(1)=   1.889726  celldm(2)=   0.000000  celldm(3)=   0.000000
     celldm(4)=   0.000000  celldm(5)=   0.000000  celldm(6)=   0.000000

     crystal axes: (cart. coord. in units of alat)
               a(1) = (   0.000000   3.516063   3.516063 )
               a(2) = (  -3.516063   0.000000  -3.516063 )
               a(3) = (  -3.516063  -3.516063   3.516063 )

     reciprocal axes: (cart. coord. in units 2 pi/alat)
               b(1) = ( -0.094803  0.189606  0.094803 )
               b(2) = ( -0.189606  0.094803 -0.094803 )
               b(3) = ( -0.094803 -0.094803  0.094803 )

     PseudoPot. # 1 for Nb read from file:
     ./Nb.pbe-nsp-van.UPF
     MD5 check sum: 0a22fc7fb0ba19a08ca5db297a5d2854
     Pseudo is Ultrasoft + core correction, Zval = 13.0
     Generated by new atomic code, or converted to UPF format
     Using radial grid of  887 points,  6 beta functions with:
                l(1) =   0
                l(2) =   0
                l(3) =   1
                l(4) =   1
                l(5) =   2
                l(6) =   2
     Q(r) pseudized with  6 coefficients,  rinner =    1.000   1.000   1.000
                                                       1.000   1.000

     PseudoPot. # 2 for Ti read from file:
     ./Ti.pbe-sp-van_ak.UPF
     MD5 check sum: f98fea3e8887528921fefa5636a534ca
     Pseudo is Ultrasoft, Zval = 12.0
     Generated by new atomic code, or converted to UPF format
     Using radial grid of  851 points,  6 beta functions with:
                l(1) =   0
                l(2) =   0
                l(3) =   1
                l(4) =   1
                l(5) =   2
                l(6) =   2
     Q(r) pseudized with  8 coefficients,  rinner =    1.000   1.000   1.000
                                                       1.000   1.000

     atomic species   valence    mass     pseudopotential
        Nb            13.00    92.90638     Nb( 1.00)
        Ti            12.00    47.86700     Ti( 1.00)

      6 Sym. Ops. (no inversion) found
          (note:  6 additional sym.ops. were found but ignored
           their fractional translations are incommensurate with FFT grid)

   Cartesian axes

     site n.     atom                  positions (alat units)
         1           Ti  tau(   1) = (  -3.5160633   0.0000000   3.5160633  )
         2           Ti  tau(   2) = (  -1.7580316   1.7580316   1.7580316  )
         3           Ti  tau(   3) = (  -3.5160633   0.0000000   0.0000000  )
         4           Ti  tau(   4) = (  -5.2740949   1.7580316   1.7580316  )
         5           Nb  tau(   5) = (  -5.2740949  -1.7580316   1.7580316  )
         6           Nb  tau(   6) = (  -7.0321265   0.0000000   3.5160633  )

     number of k points=   162  Marzari-Vanderbilt smearing, width (Ry)=  0.0200

     Number of k-points >= 100: set verbosity='high' to print them.

     Initial potential from superposition of free atoms

     starting charge   69.99436, renormalised to   74.00000
     Starting wfcs are   66 randomized atomic wfcs

     Self-consistent Calculation

     iteration #  1     ecut=    50.00 Ry     beta= 0.60
     Davidson diagonalization with overlap
     ethr =  1.00E-02,  avg # of iterations =  3.6

     total energy              =    -690.26393279 Ry
     Harris-Foulkes estimate   =    -705.28213727 Ry
     estimated scf accuracy    <      18.94700700 Ry

[...]

     iteration # 23     ecut=    50.00 Ry     beta= 0.60
     Davidson diagonalization with overlap
     c_bands:  1 eigenvalues not converged
     c_bands:  1 eigenvalues not converged
     c_bands:  1 eigenvalues not converged
     c_bands:  1 eigenvalues not converged
     c_bands:  1 eigenvalues not converged
     c_bands:  1 eigenvalues not converged
     c_bands:  1 eigenvalues not converged
     c_bands:  1 eigenvalues not converged
     c_bands:  1 eigenvalues not converged
     c_bands:  1 eigenvalues not converged
     ethr =  3.88E-06,  avg # of iterations =  7.6

[...]

     End of self-consistent calculation

     Number of k-points >= 100: set verbosity='high' to print the bands.

     the Fermi energy is    11.4338 ev

!    total energy              =    -702.32329831 Ry
     Harris-Foulkes estimate   =    -702.32329831 Ry
     estimated scf accuracy    <          4.2E-11 Ry

     The total energy is the sum of the following terms:

     one-electron contribution =    -252.75560653 Ry
     hartree contribution      =     144.58385258 Ry
     xc contribution           =     -93.99474400 Ry
     ewald contribution        =    -500.15442323 Ry
     smearing contrib. (-TS)   =      -0.00237713 Ry

     convergence has been achieved in  42 iterations

     Forces acting on atoms (cartesian axes, Ry/au):

     atom    1 type  2   force =    -0.00407966   -0.00407966    0.00407966
     atom    2 type  2   force =     0.00407722    0.00407722   -0.00407722
     atom    3 type  2   force =    -0.00100788   -0.00100788    0.00100788
     atom    4 type  2   force =     0.00100856    0.00100856   -0.00100856
     atom    5 type  1   force =    -0.00554752   -0.00554752    0.00554752
     atom    6 type  1   force =     0.00554928    0.00554928   -0.00554928

     Total force =     0.017047     Total SCF correction =     0.000002

     Computing stress (Cartesian axis) and pressure

          total   stress  (Ry/bohr**3)                   (kbar)     P= -188.89
  -0.00128402   0.00000311  -0.00000311       -188.89      0.46     -0.46
   0.00000311  -0.00128402  -0.00000311          0.46   -188.89     -0.46
  -0.00000311  -0.00000311  -0.00128402         -0.46     -0.46   -188.89

     BFGS Geometry Optimization

     number of scf cycles    =   1
     number of bfgs steps    =   0

     enthalpy new            =    -702.3232983062 Ry

     new trust radius        =       0.1904538393 bohr
     new conv_thr            =            1.0E-10 Ry

     new unit-cell volume =    797.95489 a.u.^3 (   118.24471 Ang^3 )
     density =      5.29824 g/cm^3

CELL_PARAMETERS (alat=  1.88972599)
  -0.000000000   3.402921514   3.402921514
  -3.402921514  -0.000000000  -3.402921514
  -3.403742633  -3.403742633   3.403742633

ATOMIC_POSITIONS (angstrom)
Ti      -3.405558824  -0.002637310   3.405558824
Ti      -1.699508960   1.703412554   1.699508960
Ti      -3.403711530  -0.000790016   0.000790016
Ti      -5.104276175   1.701566853   1.701354661
Nb      -5.107908380  -1.704986866   1.704986866
Nb      -6.803821401   0.002021627   3.400899887

     NEW-OLD atomic charge density approx. for the potential
     extrapolated charge   66.80234, renormalised to   74.00000

[...]

     enthalpy old            =    -702.3232983062 Ry
     enthalpy new            =    -702.4127472857 Ry

     CASE: enthalpy_new < enthalpy_old

[...]

     Threshold (ethr) on eigenvalues was too large:
     Diagonalizing with lowered threshold

     Davidson diagonalization with overlap
     ethr =  3.78E-08,  avg # of iterations =  2.0

[...]

     Total force =     0.000015     Total SCF correction =     0.000002
     SCF correction compared to forces is large: reduce conv_thr to get better values

[...]

     small trust_radius: resetting bfgs history

[...]

     number of scf cycles    =  24
     number of bfgs steps    =  23

     enthalpy old            =    -702.4590181050 Ry
     enthalpy new            =    -702.4590181076 Ry

     CASE: enthalpy_new < enthalpy_old

     Message from routine bfgs:
     history already reset at previous step: stopping
     small trust_radius: resetting bfgs history

     new trust radius        =       0.0000145627 bohr
     new conv_thr            =            1.0E-12 Ry

     new unit-cell volume =    704.79898 a.u.^3 (   104.44043 Ang^3 )
     density =      5.99853 g/cm^3

[...]

ATOMIC_POSITIONS (angstrom)
Ti      -3.271654027  -0.031877925   3.271654027
Ti      -1.652309841   1.587466261   1.652309841
Ti      -3.351461357  -0.111685255   0.111685255
Ti      -4.812020181   1.667532023   1.572244079
Nb      -4.968485423  -1.728709321   1.728709321
Nb      -6.511926058  -0.032373854   3.272149956

     NEW-OLD atomic charge density approx. for the potential
     extrapolated charge   73.99945, renormalised to   74.00000

[...]

     Threshold (ethr) on eigenvalues was too large:
     Diagonalizing with lowered threshold

     Davidson diagonalization with overlap
     ethr =  3.73E-11,  avg # of iterations =  1.2

[...]

     bfgs converged in  25 scf cycles and  24 bfgs steps
     (criteria: energy <  1.0E-10 Ry, force <  1.0E-05Ry/Bohr, cell <  1.0E-03kbar)

     End of BFGS Geometry Optimization

     Final enthalpy =    -702.4590181082 Ry
Begin final coordinates
     new unit-cell volume =    704.79898 a.u.^3 (   104.44043 Ang^3 )
     density =      5.99853 g/cm^3

CELL_PARAMETERS (alat=  1.88972599)
  -0.000000000   3.239776102   3.239776102
  -3.239776102   0.000000000  -3.239776102
  -3.316786423  -3.316786423   3.316786423

ATOMIC_POSITIONS (angstrom)
Ti      -3.271654027  -0.031877925   3.271654027
Ti      -1.652309841   1.587466261   1.652309841
Ti      -3.351461357  -0.111685255   0.111685255
Ti      -4.812020181   1.667532023   1.572244079
Nb      -4.968485423  -1.728709321   1.728709321
Nb      -6.511926058  -0.032373854   3.272149956
End final coordinates

     A final scf calculation at the relaxed structure.
     The G-vectors are recalculated for the final unit cell
     Results may differ from those at the preceding step.

     bravais-lattice index     =            0
     lattice parameter (alat)  =       1.8897  a.u.
     unit-cell volume          =     704.7990 (a.u.)^3
     number of atoms/cell      =            6
     number of atomic types    =            2
     number of electrons       =        74.00
     number of Kohn-Sham states=           44
     kinetic-energy cutoff     =      50.0000  Ry
     charge density cutoff     =     500.0000  Ry
     convergence threshold     =      1.0E-12
     mixing beta               =       0.6000
     number of iterations used =            8  plain     mixing
     Exchange-correlation      = SLA PW PBE PBE ( 1  4  3  4 0 0)

     celldm(1)=   1.889726  celldm(2)=   0.000000  celldm(3)=   0.000000
     celldm(4)=   0.000000  celldm(5)=   0.000000  celldm(6)=   0.000000

     crystal axes: (cart. coord. in units of alat)
               a(1) = (  -0.000000   3.239776   3.239776 )
               a(2) = (  -3.239776   0.000000  -3.239776 )
               a(3) = (  -3.316786  -3.316786   3.316786 )

     reciprocal axes: (cart. coord. in units 2 pi/alat)
               b(1) = ( -0.102888  0.205776  0.102888 )
               b(2) = ( -0.205776  0.102888 -0.102888 )
               b(3) = ( -0.100499 -0.100499  0.100499 )

     PseudoPot. # 1 for Nb read from file:
     ./Nb.pbe-nsp-van.UPF
     MD5 check sum: 0a22fc7fb0ba19a08ca5db297a5d2854
     Pseudo is Ultrasoft + core correction, Zval = 13.0
     Generated by new atomic code, or converted to UPF format
     Using radial grid of  887 points,  6 beta functions with:
                l(1) =   0
                l(2) =   0
                l(3) =   1
                l(4) =   1
                l(5) =   2
                l(6) =   2
     Q(r) pseudized with  6 coefficients,  rinner =    1.000   1.000   1.000
                                                       1.000   1.000

     PseudoPot. # 2 for Ti read from file:
     ./Ti.pbe-sp-van_ak.UPF
     MD5 check sum: f98fea3e8887528921fefa5636a534ca
     Pseudo is Ultrasoft, Zval = 12.0
     Generated by new atomic code, or converted to UPF format
     Using radial grid of  851 points,  6 beta functions with:
                l(1) =   0
                l(2) =   0
                l(3) =   1
                l(4) =   1
                l(5) =   2
                l(6) =   2
     Q(r) pseudized with  8 coefficients,  rinner =    1.000   1.000   1.000
                                                       1.000   1.000

     atomic species   valence    mass     pseudopotential
        Nb            13.00    92.90638     Nb( 1.00)
        Ti            12.00    47.86700     Ti( 1.00)

      6 Sym. Ops. (no inversion) found
          (note:  6 additional sym.ops. were found but ignored
           their fractional translations are incommensurate with FFT grid)

   Cartesian axes

     site n.     atom                  positions (alat units)
         1           Ti  tau(   1) = (  -3.2716543  -0.0318779   3.2716543  )
         2           Ti  tau(   2) = (  -1.6523100   1.5874664   1.6523100  )
         3           Ti  tau(   3) = (  -3.3514616  -0.1116853   0.1116853  )
         4           Ti  tau(   4) = (  -4.8120205   1.6675322   1.5722442  )
         5           Nb  tau(   5) = (  -4.9684858  -1.7287095   1.7287095  )
         6           Nb  tau(   6) = (  -6.5119266  -0.0323739   3.2721502  )

     number of k points=   162  Marzari-Vanderbilt smearing, width (Ry)=  0.0200

     Number of k-points >= 100: set verbosity='high' to print them.

     Initial potential from superposition of free atoms

     starting charge   69.99436, renormalised to   74.00000
     Starting wfcs are   66 randomized atomic wfcs

     Self-consistent Calculation

     iteration #  1     ecut=    50.00 Ry     beta= 0.60
     Davidson diagonalization with overlap
     c_bands:  1 eigenvalues not converged
     c_bands:  1 eigenvalues not converged
     c_bands:  1 eigenvalues not converged
     c_bands:  1 eigenvalues not converged
     c_bands:  1 eigenvalues not converged
     c_bands:  1 eigenvalues not converged
     c_bands:  1 eigenvalues not converged
     c_bands:  1 eigenvalues not converged
     c_bands:  1 eigenvalues not converged
     c_bands:  1 eigenvalues not converged
     c_bands:  1 eigenvalues not converged
     c_bands:  1 eigenvalues not converged
     c_bands:  1 eigenvalues not converged
     c_bands:  1 eigenvalues not converged
     c_bands:  2 eigenvalues not converged
     c_bands:  1 eigenvalues not converged
     c_bands:  1 eigenvalues not converged
     c_bands:  1 eigenvalues not converged
     c_bands:  1 eigenvalues not converged
     c_bands:  1 eigenvalues not converged
     c_bands:  2 eigenvalues not converged
     c_bands:  3 eigenvalues not converged
     c_bands:  1 eigenvalues not converged
     c_bands:  2 eigenvalues not converged
     c_bands:  2 eigenvalues not converged
     c_bands:  2 eigenvalues not converged
     c_bands:  1 eigenvalues not converged
     c_bands:  1 eigenvalues not converged
     c_bands:  1 eigenvalues not converged
     c_bands:  1 eigenvalues not converged
     c_bands:  1 eigenvalues not converged
     c_bands:  2 eigenvalues not converged
     c_bands:  1 eigenvalues not converged
     c_bands:  1 eigenvalues not converged
     c_bands:  1 eigenvalues not converged
     c_bands:  1 eigenvalues not converged
     c_bands:  1 eigenvalues not converged
     c_bands:  1 eigenvalues not converged
     c_bands:  1 eigenvalues not converged
     c_bands:  1 eigenvalues not converged
     c_bands:  1 eigenvalues not converged
     c_bands:  1 eigenvalues not converged
     c_bands:  1 eigenvalues not converged
     c_bands:  1 eigenvalues not converged
     c_bands:  1 eigenvalues not converged
     c_bands:  1 eigenvalues not converged
     c_bands:  1 eigenvalues not converged
     c_bands:  1 eigenvalues not converged
     c_bands:  1 eigenvalues not converged
     c_bands:  1 eigenvalues not converged
     c_bands:  1 eigenvalues not converged
     c_bands:  1 eigenvalues not converged
     c_bands:  1 eigenvalues not converged
     c_bands:  1 eigenvalues not converged
     c_bands:  1 eigenvalues not converged
     c_bands:  2 eigenvalues not converged
     c_bands:  2 eigenvalues not converged
     c_bands:  2 eigenvalues not converged
     c_bands:  3 eigenvalues not converged
     c_bands:  1 eigenvalues not converged
[...]
     c_bands:  1 eigenvalues not converged
     c_bands:  2 eigenvalues not converged
     c_bands:  1 eigenvalues not converged
     c_bands:  1 eigenvalues not converged
     c_bands:  2 eigenvalues not converged
     c_bands:  1 eigenvalues not converged
     c_bands:  2 eigenvalues not converged
     c_bands:  2 eigenvalues not converged
     c_bands:  1 eigenvalues not converged
     c_bands:  2 eigenvalues not converged
     c_bands:  3 eigenvalues not converged
     c_bands:  1 eigenvalues not converged
     c_bands:  1 eigenvalues not converged
     c_bands:  3 eigenvalues not converged
     c_bands:  1 eigenvalues not converged
     ethr =  1.00E-06,  avg # of iterations = 18.1

[...]

     negative rho (up, down):  3.529E+01 0.000E+00

[...]

     negative rho (up, down):  5.404E-02 0.000E+00

[...]

     total energy              =    -702.45836059 Ry
     Harris-Foulkes estimate   =    -702.45836059 Ry
     estimated scf accuracy    <          1.3E-12 Ry

     iteration # 49     ecut=    50.00 Ry     beta= 0.60
     Davidson diagonalization with overlap
     ethr =  1.00E-13,  avg # of iterations =  1.0

     End of self-consistent calculation

     Number of k-points >= 100: set verbosity='high' to print the bands.

     the Fermi energy is    14.9315 ev

!    total energy              =    -702.45836059 Ry
     Harris-Foulkes estimate   =    -702.45836059 Ry
     estimated scf accuracy    <          7.3E-13 Ry

     The total energy is the sum of the following terms:

     one-electron contribution =    -196.30959925 Ry
     hartree contribution      =     127.24635179 Ry
     xc contribution           =     -95.06118490 Ry
     ewald contribution        =    -538.33475947 Ry
     smearing contrib. (-TS)   =       0.00083124 Ry

     convergence has been achieved in  49 iterations

     Forces acting on atoms (cartesian axes, Ry/au):

     atom    1 type  2   force =     0.00002019    0.00002019   -0.00002019
     atom    2 type  2   force =     0.00001112    0.00001112   -0.00001112
     atom    3 type  2   force =    -0.00002896   -0.00002896    0.00002896
     atom    4 type  2   force =    -0.00000602   -0.00000602    0.00000602
     atom    5 type  1   force =    -0.00000744   -0.00000744    0.00000744
     atom    6 type  1   force =     0.00001111    0.00001111   -0.00001111

     Total force =     0.000069     Total SCF correction =     0.000001

     Computing stress (Cartesian axis) and pressure

          total   stress  (Ry/bohr**3)                   (kbar)     P=   -0.42
  -0.00000283  -0.00000047   0.00000047         -0.42     -0.07      0.07
  -0.00000047  -0.00000283   0.00000047         -0.07     -0.42      0.07
   0.00000047   0.00000047  -0.00000283          0.07      0.07     -0.42

     General routines

     Parallel routines

       6h

   This run was terminated on:  14:29:56   5Feb2020

   JOB DONE.