     Program PWSCF v.6.3MaX starts on 26Jan2020 at 13:10:27

     R & G space division:  proc/nbgrp/npool/nimage =       4
     Waiting for input...
     Reading input from standard input

     Current dimensions of program PWSCF are:
     Max number of different atomic species (ntypx) = 10
     Max number of k-points (npk) =  40000
     Max angular momentum in pseudopotentials (lmaxx) =  3
     Message from routine iosys:
     minimal I/O required, wf_collect reset to FALSE

     Subspace diagonalization in iterative solution of the eigenvalue problem:
     a serial algorithm will be used

     bravais-lattice index     =            0
     lattice parameter (alat)  =       1.8897  a.u.
     unit-cell volume          =     880.0102 (a.u.)^3
     number of atoms/cell      =            6
     number of atomic types    =            2
     number of electrons       =        75.00
     number of Kohn-Sham states=           46
     kinetic-energy cutoff     =      50.0000  Ry
     charge density cutoff     =     500.0000  Ry
     convergence threshold     =      1.0E-10
     mixing beta               =       0.6000
     number of iterations used =            8  plain     mixing
     Exchange-correlation      = SLA PW PBE PBE ( 1  4  3  4 0 0)
     nstep                     =           50

     celldm(1)=   1.889726  celldm(2)=   0.000000  celldm(3)=   0.000000
     celldm(4)=   0.000000  celldm(5)=   0.000000  celldm(6)=   0.000000

     crystal axes: (cart. coord. in units of alat)
               a(1) = (   5.274095   1.758031   1.758031 )
               a(2) = (   1.758031  -5.274095   1.758031 )
               a(3) = (  -1.758031   1.758031  -5.274095 )

     reciprocal axes: (cart. coord. in units 2 pi/alat)
               b(1) = (  0.189606  0.047402 -0.047402 )
               b(2) = (  0.094803 -0.189606 -0.094803 )
               b(3) = (  0.094803 -0.047402 -0.237008 )

     PseudoPot. # 1 for Nb read from file:
     ./Nb.pbe-nsp-van.UPF
     MD5 check sum: 0a22fc7fb0ba19a08ca5db297a5d2854
     Pseudo is Ultrasoft + core correction, Zval = 13.0
     Generated by new atomic code, or converted to UPF format
     Using radial grid of  887 points,  6 beta functions with:
                l(1) =   0
                l(2) =   0
                l(3) =   1
                l(4) =   1
                l(5) =   2
                l(6) =   2
     Q(r) pseudized with  6 coefficients,  rinner =    1.000   1.000   1.000
                                                       1.000   1.000

     PseudoPot. # 2 for Ti read from file:
     ./Ti.pbe-sp-van_ak.UPF
     MD5 check sum: f98fea3e8887528921fefa5636a534ca
     Pseudo is Ultrasoft, Zval = 12.0
     Generated by new atomic code, or converted to UPF format
     Using radial grid of  851 points,  6 beta functions with:
                l(1) =   0
                l(2) =   0
                l(3) =   1
                l(4) =   1
                l(5) =   2
                l(6) =   2
     Q(r) pseudized with  8 coefficients,  rinner =    1.000   1.000   1.000
                                                       1.000   1.000

     atomic species   valence    mass     pseudopotential
        Nb            13.00    92.90638     Nb( 1.00)
        Ti            12.00    47.86700     Ti( 1.00)

      2 Sym. Ops. (no inversion) found

   Cartesian axes

     site n.     atom                  positions (alat units)
         1           Ti  tau(   1) = (   3.5160633  -3.5160633   0.0000000  )
         2           Nb  tau(   2) = (   3.5160633   0.0000000   0.0000000  )
         3           Ti  tau(   3) = (   1.7580316  -1.7580316  -1.7580316  )
         4           Ti  tau(   4) = (   5.2740949  -1.7580316   1.7580316  )
         5           Nb  tau(   5) = (   5.2740949  -1.7580316  -1.7580316  )
         6           Nb  tau(   6) = (   0.0000000   0.0000000  -3.5160633  )

     number of k points=   476  Marzari-Vanderbilt smearing, width (Ry)=  0.0200

     Number of k-points >= 100: set verbosity='high' to print them.

     Initial potential from superposition of free atoms

     starting charge   71.99167, renormalised to   75.00000
     Starting wfcs are   69 randomized atomic wfcs

     Self-consistent Calculation

     iteration #  1     ecut=    50.00 Ry     beta= 0.60
     Davidson diagonalization with overlap
     ethr =  1.00E-02,  avg # of iterations =  3.0

     total energy              =    -690.87894448 Ry
     Harris-Foulkes estimate   =    -706.21483098 Ry
     estimated scf accuracy    <      19.45356968 Ry

[...]

     iteration # 18     ecut=    50.00 Ry     beta= 0.60
     Davidson diagonalization with overlap
     c_bands:  1 eigenvalues not converged
     c_bands:  1 eigenvalues not converged
     ethr =  3.24E-05,  avg # of iterations =  8.2

[...]

     End of self-consistent calculation

     Number of k-points >= 100: set verbosity='high' to print the bands.

     the Fermi energy is    12.1642 ev

!    total energy              =    -703.60508765 Ry
     Harris-Foulkes estimate   =    -703.60508765 Ry
     estimated scf accuracy    <          2.3E-11 Ry

     The total energy is the sum of the following terms:

     one-electron contribution =    -226.18641048 Ry
     hartree contribution      =     134.30987777 Ry
     xc contribution           =     -97.86689683 Ry
     ewald contribution        =    -513.86235691 Ry
     smearing contrib. (-TS)   =       0.00069879 Ry

     convergence has been achieved in  32 iterations

     Forces acting on atoms (cartesian axes, Ry/au):

     atom    1 type  2   force =    -0.00604222   -0.00665954    0.00665954
     atom    2 type  1   force =     0.01705173    0.00090905   -0.00090905
     atom    3 type  2   force =    -0.00563612    0.00387039   -0.00387039
     atom    4 type  2   force =     0.00989621    0.00177290   -0.00177290
     atom    5 type  1   force =    -0.00891260   -0.00814013    0.00814013
     atom    6 type  1   force =    -0.00635699    0.00824732   -0.00824732

     Total force =     0.031177     Total SCF correction =     0.000005

     Computing stress (Cartesian axis) and pressure

          total   stress  (Ry/bohr**3)                   (kbar)     P= -200.06
  -0.00136357  -0.00000615   0.00000615       -200.59     -0.90      0.90
  -0.00000615  -0.00135821   0.00001191         -0.90   -199.80      1.75
   0.00000615   0.00001191  -0.00135821          0.90      1.75   -199.80

     BFGS Geometry Optimization

     number of scf cycles    =   1
     number of bfgs steps    =   0

     enthalpy new            =    -703.6050876548 Ry

     new trust radius        =       0.2022555127 bohr
     new conv_thr            =            1.0E-10 Ry

     new unit-cell volume =    793.26663 a.u.^3 (   117.54998 Ang^3 )
     density =      5.96579 g/cm^3

CELL_PARAMETERS (alat=  1.88972599)
   5.094304473   1.698049889   1.699671504
   1.699182568  -5.094758449   1.697037057
  -1.699182568   1.697037057  -5.094758449

ATOMIC_POSITIONS (angstrom)
Ti       3.393656194  -3.400617849   0.002896457
Nb       3.404918619  -0.000077354   0.000077354
Ti       1.695220028  -1.697152537  -1.700568856
Ti       5.099903050  -1.697719309   1.697719309
Nb       5.089750228  -1.703830805  -1.693890587
Nb      -0.003791181   0.003168367  -3.400889759

     NEW-OLD atomic charge density approx. for the potential
     extrapolated charge   67.12772, renormalised to   75.00000

[...]

     enthalpy old            =    -703.6050876548 Ry
     enthalpy new            =    -703.7039181978 Ry

     CASE: enthalpy_new < enthalpy_old

[...]

     Threshold (ethr) on eigenvalues was too large:
     Diagonalizing with lowered threshold

     Davidson diagonalization with overlap
     ethr =  2.36E-08,  avg # of iterations =  2.0

[...]

     small trust_radius: resetting bfgs history

[...]

     number of scf cycles    =  26
     number of bfgs steps    =  25

     enthalpy old            =    -703.7481373634 Ry
     enthalpy new            =    -703.7481373653 Ry

     CASE: enthalpy_new < enthalpy_old

     Message from routine bfgs:
     history already reset at previous step: stopping
     small trust_radius: resetting bfgs history

     new trust radius        =       0.0000174939 bohr
     new conv_thr            =            1.7E-12 Ry

     new unit-cell volume =    711.91551 a.u.^3 (   105.49499 Ang^3 )
     density =      6.64751 g/cm^3

[...]

ATOMIC_POSITIONS (angstrom)
Ti       3.183808135  -3.333062383   0.057906213
Nb       3.338001982   0.052477501  -0.052477501
Ti       1.628481889  -1.597756833  -1.677399337
Ti       4.942804991  -1.608245256   1.608245256
Nb       4.844271240  -1.674923113  -1.600233057
Nb       0.027953754   0.071009520  -3.346165690

     NEW-OLD atomic charge density approx. for the potential
     extrapolated charge   74.99995, renormalised to   75.00000

[...]

     Threshold (ethr) on eigenvalues was too large:
     Diagonalizing with lowered threshold

     Davidson diagonalization with overlap
     ethr =  1.64E-12,  avg # of iterations =  4.0

[...]

     bfgs converged in  27 scf cycles and  26 bfgs steps
     (criteria: energy <  1.0E-10 Ry, force <  1.0E-05Ry/Bohr, cell <  1.0E-03kbar)

     End of BFGS Geometry Optimization

     Final enthalpy =    -703.7481373666 Ry
Begin final coordinates
     new unit-cell volume =    711.91551 a.u.^3 (   105.49499 Ang^3 )
     density =      6.64751 g/cm^3

CELL_PARAMETERS (alat=  1.88972599)
   4.904671962   1.665328925   1.609827245
   1.597940250  -4.912210418   1.637054248
  -1.597940250   1.637054248  -4.912210418

ATOMIC_POSITIONS (angstrom)
Ti       3.183808135  -3.333062383   0.057906213
Nb       3.338001982   0.052477501  -0.052477501
Ti       1.628481889  -1.597756833  -1.677399337
Ti       4.942804991  -1.608245256   1.608245256
Nb       4.844271240  -1.674923113  -1.600233057
Nb       0.027953754   0.071009520  -3.346165690
End final coordinates

     A final scf calculation at the relaxed structure.
     The G-vectors are recalculated for the final unit cell
     Results may differ from those at the preceding step.

     bravais-lattice index     =            0
     lattice parameter (alat)  =       1.8897  a.u.
     unit-cell volume          =     711.9155 (a.u.)^3
     number of atoms/cell      =            6
     number of atomic types    =            2
     number of electrons       =        75.00
     number of Kohn-Sham states=           46
     kinetic-energy cutoff     =      50.0000  Ry
     charge density cutoff     =     500.0000  Ry
     convergence threshold     =      1.7E-12
     mixing beta               =       0.6000
     number of iterations used =            8  plain     mixing
     Exchange-correlation      = SLA PW PBE PBE ( 1  4  3  4 0 0)

     celldm(1)=   1.889726  celldm(2)=   0.000000  celldm(3)=   0.000000
     celldm(4)=   0.000000  celldm(5)=   0.000000  celldm(6)=   0.000000

     crystal axes: (cart. coord. in units of alat)
               a(1) = (   4.904672   1.665329   1.609827 )
               a(2) = (   1.597940  -4.912210   1.637054 )
               a(3) = (  -1.597940   1.637054  -4.912210 )

     reciprocal axes: (cart. coord. in units 2 pi/alat)
               b(1) = (  0.203326  0.049609 -0.049609 )
               b(2) = (  0.102524 -0.203994 -0.101335 )
               b(3) = (  0.100801 -0.051726 -0.253603 )

     PseudoPot. # 1 for Nb read from file:
     ./Nb.pbe-nsp-van.UPF
     MD5 check sum: 0a22fc7fb0ba19a08ca5db297a5d2854
     Pseudo is Ultrasoft + core correction, Zval = 13.0
     Generated by new atomic code, or converted to UPF format
     Using radial grid of  887 points,  6 beta functions with:
                l(1) =   0
                l(2) =   0
                l(3) =   1
                l(4) =   1
                l(5) =   2
                l(6) =   2
     Q(r) pseudized with  6 coefficients,  rinner =    1.000   1.000   1.000
                                                       1.000   1.000

     PseudoPot. # 2 for Ti read from file:
     ./Ti.pbe-sp-van_ak.UPF
     MD5 check sum: f98fea3e8887528921fefa5636a534ca
     Pseudo is Ultrasoft, Zval = 12.0
     Generated by new atomic code, or converted to UPF format
     Using radial grid of  851 points,  6 beta functions with:
                l(1) =   0
                l(2) =   0
                l(3) =   1
                l(4) =   1
                l(5) =   2
                l(6) =   2
     Q(r) pseudized with  8 coefficients,  rinner =    1.000   1.000   1.000
                                                       1.000   1.000

     atomic species   valence    mass     pseudopotential
        Nb            13.00    92.90638     Nb( 1.00)
        Ti            12.00    47.86700     Ti( 1.00)

      2 Sym. Ops. (no inversion) found

   Cartesian axes

     site n.     atom                  positions (alat units)
         1           Ti  tau(   1) = (   3.1838084  -3.3330626   0.0579062  )
         2           Nb  tau(   2) = (   3.3380022   0.0524775  -0.0524775  )
         3           Ti  tau(   3) = (   1.6284820  -1.5977570  -1.6773995  )
         4           Ti  tau(   4) = (   4.9428054  -1.6082454   1.6082454  )
         5           Nb  tau(   5) = (   4.8442716  -1.6749232  -1.6002332  )
         6           Nb  tau(   6) = (   0.0279538   0.0710095  -3.3461659  )

     number of k points=   476  Marzari-Vanderbilt smearing, width (Ry)=  0.0200

     Number of k-points >= 100: set verbosity='high' to print them.

     Initial potential from superposition of free atoms

     starting charge   71.99167, renormalised to   75.00000
     Starting wfcs are   69 randomized atomic wfcs

     Self-consistent Calculation

[...]

     iteration # 18     ecut=    50.00 Ry     beta= 0.60
     Davidson diagonalization with overlap
     c_bands:  1 eigenvalues not converged
     ethr =  3.34E-06,  avg # of iterations =  6.4

[...]

     total energy              =    -703.74745935 Ry
     Harris-Foulkes estimate   =    -703.74745935 Ry
     estimated scf accuracy    <          8.2E-12 Ry

     iteration # 37     ecut=    50.00 Ry     beta= 0.60
     Davidson diagonalization with overlap
     ethr =  1.00E-13,  avg # of iterations =  1.1

     End of self-consistent calculation

     Number of k-points >= 100: set verbosity='high' to print the bands.

     the Fermi energy is    15.6812 ev

!    total energy              =    -703.74745935 Ry
     Harris-Foulkes estimate   =    -703.74745935 Ry
     estimated scf accuracy    <          6.0E-13 Ry

     The total energy is the sum of the following terms:

     one-electron contribution =    -171.68747379 Ry
     hartree contribution      =     118.01935928 Ry
     xc contribution           =     -98.95586834 Ry
     ewald contribution        =    -551.12429388 Ry
     smearing contrib. (-TS)   =       0.00081738 Ry

     convergence has been achieved in  37 iterations

     Forces acting on atoms (cartesian axes, Ry/au):

     atom    1 type  2   force =    -0.00002053   -0.00000609    0.00000609
     atom    2 type  1   force =     0.00002414    0.00000693   -0.00000693
     atom    3 type  2   force =    -0.00001444    0.00000591   -0.00000591
     atom    4 type  2   force =     0.00001015   -0.00000868    0.00000868
     atom    5 type  1   force =     0.00000520   -0.00000209    0.00000209
     atom    6 type  1   force =    -0.00000453    0.00000402   -0.00000402

     Total force =     0.000042     Total SCF correction =     0.000001

     Computing stress (Cartesian axis) and pressure

          total   stress  (Ry/bohr**3)                   (kbar)     P=   -0.84
  -0.00000557  -0.00000021   0.00000021         -0.82     -0.03      0.03
  -0.00000021  -0.00000578   0.00000006         -0.03     -0.85      0.01
   0.00000021   0.00000006  -0.00000578          0.03      0.01     -0.85

     General routines

     Parallel routines

       7h

   This run was terminated on:   4:17:34  27Jan2020

   JOB DONE.