     Program PWSCF v.6.3MaX starts on 23Feb2020 at 16: 9:53

     R & G space division:  proc/nbgrp/npool/nimage =       6
     Waiting for input...
     Reading input from standard input

     Current dimensions of program PWSCF are:
     Max number of different atomic species (ntypx) = 10
     Max number of k-points (npk) =  40000
     Max angular momentum in pseudopotentials (lmaxx) =  3
     Message from routine iosys:
     minimal I/O required, wf_collect reset to FALSE

     Subspace diagonalization in iterative solution of the eigenvalue problem:
     a serial algorithm will be used

     bravais-lattice index     =            0
     lattice parameter (alat)  =       1.8897  a.u.
     unit-cell volume          =    1077.7903 (a.u.)^3
     number of atoms/cell      =            8
     number of atomic types    =            2
     number of electrons       =       100.00
     number of Kohn-Sham states=           60
     kinetic-energy cutoff     =      40.0000  Ry
     charge density cutoff     =     400.0000  Ry
     convergence threshold     =      1.0E-10
     mixing beta               =       0.6000
     number of iterations used =            8  plain     mixing
     Exchange-correlation      = SLA PW PBE PBE ( 1  4  3  4 0 0)
     nstep                     =           50

     celldm(1)=   1.889726  celldm(2)=   0.000000  celldm(3)=   0.000000
     celldm(4)=   0.000000  celldm(5)=   0.000000  celldm(6)=   0.000000

     crystal axes: (cart. coord. in units of alat)
               a(1) = (   0.000000   0.000000  -4.972461 )
               a(2) = (  -4.567506   2.637051   0.000000 )
               a(3) = (   3.045004   5.274102   0.000000 )

     reciprocal axes: (cart. coord. in units 2 pi/alat)
               b(1) = (  0.000000  0.000000 -0.201108 )
               b(2) = ( -0.164203  0.094803  0.000000 )
               b(3) = (  0.082102  0.142204  0.000000 )

     PseudoPot. # 1 for Nb read from file:
     ./Nb.pbe-nsp-van.UPF
     MD5 check sum: 0a22fc7fb0ba19a08ca5db297a5d2854
     Pseudo is Ultrasoft + core correction, Zval = 13.0
     Generated by new atomic code, or converted to UPF format
     Using radial grid of  887 points,  6 beta functions with:
                l(1) =   0
                l(2) =   0
                l(3) =   1
                l(4) =   1
                l(5) =   2
                l(6) =   2
     Q(r) pseudized with  6 coefficients,  rinner =    1.000   1.000   1.000
                                                       1.000   1.000

     PseudoPot. # 2 for Ti read from file:
     ./Ti.pbe-sp-van_ak.UPF
     MD5 check sum: f98fea3e8887528921fefa5636a534ca
     Pseudo is Ultrasoft, Zval = 12.0
     Generated by new atomic code, or converted to UPF format
     Using radial grid of  851 points,  6 beta functions with:
                l(1) =   0
                l(2) =   0
                l(3) =   1
                l(4) =   1
                l(5) =   2
                l(6) =   2
     Q(r) pseudized with  8 coefficients,  rinner =    1.000   1.000   1.000
                                                       1.000   1.000

     atomic species   valence    mass     pseudopotential
        Nb            13.00    92.90638     Nb( 1.00)
        Ti            12.00    47.86700     Ti( 1.00)

      2 Sym. Ops. (no inversion) found
          (note:  6 additional sym.ops. were found but ignored
           their fractional translations are incommensurate with FFT grid)

   Cartesian axes

     site n.     atom                  positions (alat units)
         1           Nb  tau(   1) = (  -3.0450042   5.2741024  -4.9724614  )
         2           Ti  tau(   2) = (  -3.0450027   3.5160674  -2.4862307  )
         3           Ti  tau(   3) = (   0.0000000   5.2741024  -4.9724614  )
         4           Ti  tau(   4) = (   0.0000015   3.5160674  -2.4862307  )
         5           Ti  tau(   5) = (  -1.5225021   7.9111536  -4.9724614  )
         6           Nb  tau(   6) = (  -1.5225006   6.1531186  -2.4862307  )
         7           Nb  tau(   7) = (  -1.5225021   2.6370512  -4.9724614  )
         8           Nb  tau(   8) = (   1.5225036   6.1531186  -2.4862307  )

     number of k points=   300  Marzari-Vanderbilt smearing, width (Ry)=  0.0200

     Number of k-points >= 100: set verbosity='high' to print them.

     Initial potential from superposition of free atoms

     starting charge   95.98889, renormalised to  100.00000
     Starting wfcs are   92 randomized atomic wfcs

     Self-consistent Calculation

     iteration #  1     ecut=    40.00 Ry     beta= 0.60
     Davidson diagonalization with overlap
     ethr =  1.00E-02,  avg # of iterations =  3.1

     total energy              =    -926.88523926 Ry
     Harris-Foulkes estimate   =    -940.91641240 Ry
     estimated scf accuracy    <      17.96642002 Ry

[...]

     iteration # 22     ecut=    40.00 Ry     beta= 0.60
     Davidson diagonalization with overlap
     c_bands:  1 eigenvalues not converged
     c_bands:  1 eigenvalues not converged
     ethr =  1.93E-06,  avg # of iterations =  3.0

[...]

     End of self-consistent calculation

     Number of k-points >= 100: set verbosity='high' to print the bands.

     the Fermi energy is    13.8326 ev

!    total energy              =    -938.19402067 Ry
     Harris-Foulkes estimate   =    -938.19402067 Ry
     estimated scf accuracy    <          9.1E-11 Ry

     The total energy is the sum of the following terms:

     one-electron contribution =    -272.44186110 Ry
     hartree contribution      =     170.04564081 Ry
     xc contribution           =    -130.98612375 Ry
     ewald contribution        =    -704.80264882 Ry
     smearing contrib. (-TS)   =      -0.00902781 Ry

     convergence has been achieved in  36 iterations

     Forces acting on atoms (cartesian axes, Ry/au):

     atom    1 type  1   force =     0.00099299   -0.00023442    0.00000000
     atom    2 type  2   force =     0.00033132    0.00128874    0.00000000
     atom    3 type  2   force =     0.00100106    0.00107712    0.00000000
     atom    4 type  2   force =    -0.00098633   -0.00099979    0.00000000
     atom    5 type  2   force =    -0.00039362   -0.00133912    0.00000000
     atom    6 type  1   force =    -0.00096665    0.00022452    0.00000000
     atom    7 type  1   force =     0.00069765   -0.00074534    0.00000000
     atom    8 type  1   force =    -0.00067642    0.00072829    0.00000000

     Total force =     0.003451     Total SCF correction =     0.000022

     Computing stress (Cartesian axis) and pressure

          total   stress  (Ry/bohr**3)                   (kbar)     P= -126.92
  -0.00091598   0.00001383   0.00000000       -134.74      2.04      0.00
   0.00001383  -0.00090001   0.00000000          2.04   -132.40      0.00
   0.00000000   0.00000000  -0.00077247          0.00      0.00   -113.63

     BFGS Geometry Optimization

     number of scf cycles    =   1
     number of bfgs steps    =   0

     enthalpy new            =    -938.1940206670 Ry

     new trust radius        =       0.1503732361 bohr
     new conv_thr            =            1.0E-10 Ry

     new unit-cell volume =   1009.53445 a.u.^3 (   149.59757 Ang^3 )
     density =      6.25036 g/cm^3

CELL_PARAMETERS (alat=  1.88972599)
   0.000000000   0.000000000  -4.876434450
  -4.462000884   2.576136853   0.000000000
   2.977099312   5.156486150   0.000000000

ATOMIC_POSITIONS (angstrom)
Nb      -2.972937836   5.154258852  -4.876434450
Ti      -2.973886207   3.436568079  -2.438217225
Ti       0.002341845   5.155990383  -4.876434450
Ti       0.000707340   3.436437159  -2.438217225
Ti      -1.485105343   7.731930241  -4.876434450
Nb      -1.486007870   6.014260425  -2.438217225
Nb      -1.486365022   2.576804552  -4.876434450
Nb       1.489417557   6.015574174  -2.438217225

     NEW-OLD atomic charge density approx. for the potential

     Check: negative/imaginary core charge=   -0.000001    0.000000
     extrapolated charge   93.51007, renormalised to  100.00000

[...]

     enthalpy old            =    -938.1940206670 Ry
     enthalpy new            =    -938.2381786639 Ry

     CASE: enthalpy_new < enthalpy_old

[...]

     NEW-OLD atomic charge density approx. for the potential
     extrapolated charge   99.72866, renormalised to  100.00000

[...]

     NEW-OLD atomic charge density approx. for the potential

     Check: negative/imaginary core charge=   -0.000001    0.000000
     extrapolated charge   99.76232, renormalised to  100.00000

[...]

     Threshold (ethr) on eigenvalues was too large:
     Diagonalizing with lowered threshold

     Davidson diagonalization with overlap
     ethr =  4.39E-08,  avg # of iterations =  2.2

[...]

     Threshold (ethr) on eigenvalues was too large:
     Diagonalizing with lowered threshold

     Davidson diagonalization with overlap
     ethr =  4.35E-08,  avg # of iterations =  2.2

[...]

     WARNING: bfgs curvature condition failed, Theta= 0.883
     new trust radius        =       0.0047459839 bohr
     new conv_thr            =            5.4E-11 Ry

[...]

     CASE: enthalpy_new < enthalpy_old

     WARNING: info= 31 for Hessian

     WARNING: bfgs curvature condition failed, Theta= 0.805
     new trust radius        =       0.2390161510 bohr
     new conv_thr            =            1.0E-10 Ry

[...]

     Self-consistent Calculation

[...]

     iteration #  8     ecut=    40.00 Ry     beta= 0.60
     Davidson diagonalization with overlap
     c_bands:  1 eigenvalues not converged
     c_bands:  1 eigenvalues not converged
     ethr =  5.38E-06,  avg # of iterations =  6.1

[...]

     total energy              =    -938.28300176 Ry
     Harris-Foulkes estimate   =    -938.28300176 Ry
     estimated scf accuracy    <          1.6E-10 Ry

     iteration # 26     ecut=    40.00 Ry     beta= 0.60
     Davidson diagonalization with overlap
     ethr =  1.62E-13,  avg # of iterations =  1.3

     End of self-consistent calculation

     Number of k-points >= 100: set verbosity='high' to print the bands.

     the Fermi energy is    15.7830 ev

!    total energy              =    -938.28300176 Ry
     Harris-Foulkes estimate   =    -938.28300176 Ry
     estimated scf accuracy    <          2.7E-11 Ry

     The total energy is the sum of the following terms:

     one-electron contribution =    -230.24596302 Ry
     hartree contribution      =     157.75986624 Ry
     xc contribution           =    -131.88061008 Ry
     ewald contribution        =    -733.92007585 Ry
     smearing contrib. (-TS)   =       0.00378095 Ry

     convergence has been achieved in  26 iterations

     Forces acting on atoms (cartesian axes, Ry/au):

     atom    1 type  1   force =     0.00000111    0.00036358    0.00000000
     atom    2 type  2   force =    -0.00002537    0.00007861    0.00000000
     atom    3 type  2   force =     0.00011706    0.00013204    0.00000000
     atom    4 type  2   force =    -0.00012345   -0.00015231    0.00000000
     atom    5 type  2   force =     0.00003122   -0.00006422    0.00000000
     atom    6 type  1   force =     0.00000358   -0.00033807    0.00000000
     atom    7 type  1   force =    -0.00014201    0.00002738    0.00000000
     atom    8 type  1   force =     0.00013785   -0.00004701    0.00000000

     Total force =     0.000608     Total SCF correction =     0.000013

     Computing stress (Cartesian axis) and pressure

          total   stress  (Ry/bohr**3)                   (kbar)     P=    0.35
   0.00000169   0.00000070   0.00000000          0.25      0.10      0.00
   0.00000070   0.00000114   0.00000000          0.10      0.17      0.00
   0.00000000   0.00000000   0.00000424          0.00      0.00      0.62

     number of scf cycles    =  50
     number of bfgs steps    =  49

     enthalpy old            =    -938.2832624932 Ry
     enthalpy new            =    -938.2830017608 Ry

     CASE: enthalpy_new > enthalpy_old

     new trust radius        =       0.0057833648 bohr
     new conv_thr            =            1.0E-10 Ry

     new unit-cell volume =    966.83292 a.u.^3 (   143.26986 Ang^3 )
     density =      6.52642 g/cm^3

CELL_PARAMETERS (alat=  1.88972599)
   0.000000000   0.000000000  -4.845028979
  -4.744615067   2.629900432   0.000000000
   2.833826080   4.661666052   0.000000000

ATOMIC_POSITIONS (angstrom)
Nb      -3.482882825   5.136908676  -4.845028979
Ti      -3.155768015   3.250786392  -2.422514489
Ti      -0.283762123   4.938005257  -4.845028979
Ti      -0.132978263   3.071979465  -2.422514489
Ti      -1.995388622   7.406362471  -4.845028979
Nb      -1.668015893   5.520165368  -2.422514489
Nb      -1.853678495   2.692558513  -4.845028979
Nb       1.436997274   5.317696249  -2.422514489

     NEW-OLD atomic charge density approx. for the potential
     extrapolated charge  101.54498, renormalised to  100.00000

     General routines

     Parallel routines

      22h

   This run was terminated on:   4:32:24  24Feb2020

   JOB DONE.