     Program PWSCF v.6.3MaX starts on 22Jan2020 at 10:23:55

     R & G space division:  proc/nbgrp/npool/nimage =      12
     Waiting for input...
     Reading input from standard input

     Current dimensions of program PWSCF are:
     Max number of different atomic species (ntypx) = 10
     Max number of k-points (npk) =  40000
     Max angular momentum in pseudopotentials (lmaxx) =  3
     Message from routine iosys:
     minimal I/O required, wf_collect reset to FALSE

     Subspace diagonalization in iterative solution of the eigenvalue problem:
     a serial algorithm will be used

     bravais-lattice index     =            0
     lattice parameter (alat)  =       1.8897  a.u.
     unit-cell volume          =     440.0051 (a.u.)^3
     number of atoms/cell      =            3
     number of atomic types    =            2
     number of electrons       =        37.00
     number of Kohn-Sham states=           23
     kinetic-energy cutoff     =      50.0000  Ry
     charge density cutoff     =     500.0000  Ry
     convergence threshold     =      1.0E-10
     mixing beta               =       0.6000
     number of iterations used =            8  plain     mixing
     Exchange-correlation      = SLA PW PBE PBE ( 1  4  3  4 0 0)
     nstep                     =           50

     celldm(1)=   1.889726  celldm(2)=   0.000000  celldm(3)=   0.000000
     celldm(4)=   0.000000  celldm(5)=   0.000000  celldm(6)=   0.000000

     crystal axes: (cart. coord. in units of alat)
               a(1) = (  -1.758031   5.274095  -1.758031 )
               a(2) = (   1.758031   5.274095   1.758031 )
               a(3) = (   1.758031  -5.274095  -1.758031 )

     reciprocal axes: (cart. coord. in units 2 pi/alat)
               b(1) = (  0.000000  0.094803 -0.284409 )
               b(2) = (  0.284409  0.094803  0.000000 )
               b(3) = (  0.284409  0.000000 -0.284409 )

     PseudoPot. # 1 for Nb read from file:
     /home/u16/abhishekkt/fp/krishna/calculations/pseudopotentials/Nb.pbe-nsp-van.UPF
     MD5 check sum: c44c1a86bf31974e1e832c2ec821fd5f
     Pseudo is Ultrasoft + core correction, Zval = 13.0
     Generated by new atomic code, or converted to UPF format
     Using radial grid of  887 points,  6 beta functions with:
                l(1) =   0
                l(2) =   0
                l(3) =   1
                l(4) =   1
                l(5) =   2
                l(6) =   2
     Q(r) pseudized with  6 coefficients,  rinner =    1.000   1.000   1.000
                                                       1.000   1.000

     PseudoPot. # 2 for Ti read from file:
     /home/u16/abhishekkt/fp/krishna/calculations/pseudopotentials/Ti.pbe-sp-van_ak.UPF
     MD5 check sum: 84d3ec9e8983e94242673103c800fb48
     Pseudo is Ultrasoft, Zval = 12.0
     Generated by new atomic code, or converted to UPF format
     Using radial grid of  851 points,  6 beta functions with:
                l(1) =   0
                l(2) =   0
                l(3) =   1
                l(4) =   1
                l(5) =   2
                l(6) =   2
     Q(r) pseudized with  8 coefficients,  rinner =    1.000   1.000   1.000
                                                       1.000   1.000

     atomic species   valence    mass     pseudopotential
        Nb            13.00    92.90638     Nb( 1.00)
        Ti            12.00    47.86700     Ti( 1.00)

      8 Sym. Ops. (no inversion) found
          (note:  8 additional sym.ops. were found but ignored
           their fractional translations are incommensurate with FFT grid)

   Cartesian axes

     site n.     atom                  positions (alat units)
         1           Ti  tau(   1) = (   1.7580316   1.7580316  -1.7580316  )
         2           Ti  tau(   2) = (   1.7580316   5.2740949  -1.7580316  )
         3           Nb  tau(   3) = (   1.7580316  -1.7580316  -1.7580316  )

     number of k points=   244  Marzari-Vanderbilt smearing, width (Ry)=  0.0200

     Number of k-points >= 100: set verbosity='high' to print them.

     Initial potential from superposition of free atoms

     starting charge   34.99718, renormalised to   37.00000
     Starting wfcs are   33 randomized atomic wfcs

     Self-consistent Calculation

     iteration #  1     ecut=    50.00 Ry     beta= 0.60
     Davidson diagonalization with overlap
     ethr =  1.00E-02,  avg # of iterations =  3.5

     total energy              =    -348.04778266 Ry
     Harris-Foulkes estimate   =    -352.24390873 Ry
     estimated scf accuracy    <       5.38823938 Ry

[...]

     iteration # 12     ecut=    50.00 Ry     beta= 0.60
     Davidson diagonalization with overlap
     c_bands:  1 eigenvalues not converged
     ethr =  1.17E-06,  avg # of iterations =  1.2

[...]

     End of self-consistent calculation

     Number of k-points >= 100: set verbosity='high' to print the bands.

     the Fermi energy is    11.4479 ev

!    total energy              =    -351.15507565 Ry
     Harris-Foulkes estimate   =    -351.15507565 Ry
     estimated scf accuracy    <          4.8E-11 Ry

     The total energy is the sum of the following terms:

     one-electron contribution =    -126.34777408 Ry
     hartree contribution      =      72.30022492 Ry
     xc contribution           =     -46.99765101 Ry
     ewald contribution        =    -250.10861073 Ry
     smearing contrib. (-TS)   =      -0.00126475 Ry

     convergence has been achieved in  23 iterations

     Forces acting on atoms (cartesian axes, Ry/au):

     atom    1 type  2   force =     0.00000000    0.02429064    0.00000000
     atom    2 type  2   force =     0.00000000   -0.02428664    0.00000000
     atom    3 type  1   force =     0.00000000   -0.00000400    0.00000000

     Total force =     0.034349     Total SCF correction =     0.000013

     Computing stress (Cartesian axis) and pressure

          total   stress  (Ry/bohr**3)                   (kbar)     P= -190.06
  -0.00126702  -0.00000000  -0.00000000       -186.38     -0.00     -0.00
  -0.00000000  -0.00134191  -0.00000000         -0.00   -197.40     -0.00
   0.00000000   0.00000000  -0.00126702          0.00      0.00   -186.38

     BFGS Geometry Optimization

     number of scf cycles    =   1
     number of bfgs steps    =   0

     enthalpy new            =    -351.1550756461 Ry

     new trust radius        =       0.1407414895 bohr
     new conv_thr            =            1.0E-10 Ry

     new unit-cell volume =    398.73104 a.u.^3 (    59.08584 Ang^3 )
     density =      5.30152 g/cm^3

CELL_PARAMETERS (alat=  1.88972599)
  -1.702345146   5.097160538  -1.702345146
   1.702345146   5.097160538   1.702345146
   1.702345146  -5.097160538  -1.702345146

ATOMIC_POSITIONS (angstrom)
Ti       1.702345146   1.711476342  -1.702345146
Ti       1.702345146   5.084739753  -1.702345146
Nb       1.702345146  -1.699055557  -1.702345146

     NEW-OLD atomic charge density approx. for the potential
     extrapolated charge   33.37732, renormalised to   37.00000

[...]

     enthalpy old            =    -351.1550756461 Ry
     enthalpy new            =    -351.2015564701 Ry

     CASE: enthalpy_new < enthalpy_old

[...]

     WARNING: bfgs curvature condition failed, Theta= 0.912
     new trust radius        =       0.0141352468 bohr
     new conv_thr            =            1.0E-10 Ry

[...]

     Threshold (ethr) on eigenvalues was too large:
     Diagonalizing with lowered threshold

     Davidson diagonalization with overlap
     ethr =  8.16E-08,  avg # of iterations =  3.0

[...]

     Total force =     0.000006     Total SCF correction =     0.000004
     SCF correction compared to forces is large: reduce conv_thr to get better values

[...]

     CASE: enthalpy_new < enthalpy_old

     small trust_radius: resetting bfgs history

     new trust radius        =       0.0000062228 bohr
     new conv_thr            =            1.0E-12 Ry

[...]

     NEW-OLD atomic charge density approx. for the potential
     extrapolated charge   37.00013, renormalised to   37.00000

[...]

     number of scf cycles    =  21
     number of bfgs steps    =  20

     enthalpy old            =    -351.2273369380 Ry
     enthalpy new            =    -351.2273369380 Ry

     CASE: enthalpy_new > enthalpy_old

     new trust radius        =       0.0000030856 bohr

     trust_radius < trust_radius_min

     resetting bfgs history

     Message from routine bfgs:
     history already reset at previous step: stopping
     new conv_thr            =            1.0E-12 Ry

     new unit-cell volume =    353.29189 a.u.^3 (    52.35246 Ang^3 )
     density =      5.98338 g/cm^3

[...]

ATOMIC_POSITIONS (angstrom)
Ti       1.709514792   1.543498183  -1.709514792
Ti       1.709514792   4.427835382  -1.709514792
Nb       1.709514792  -1.492845292  -1.709514792

     NEW-OLD atomic charge density approx. for the potential

[...]

     Threshold (ethr) on eigenvalues was too large:
     Diagonalizing with lowered threshold

     Davidson diagonalization with overlap
     ethr =  3.72E-14,  avg # of iterations =  2.6

[...]

     Total force =     0.000005     Total SCF correction =     0.000001
     SCF correction compared to forces is large: reduce conv_thr to get better values

[...]

     bfgs converged in  22 scf cycles and  20 bfgs steps
     (criteria: energy <  1.0E-10 Ry, force <  1.0E-05Ry/Bohr, cell <  1.0E-03kbar)

     End of BFGS Geometry Optimization

     Final enthalpy =    -351.2273369380 Ry
Begin final coordinates
     new unit-cell volume =    353.29189 a.u.^3 (    52.35246 Ang^3 )
     density =      5.98338 g/cm^3

CELL_PARAMETERS (alat=  1.88972599)
  -1.709514792   4.478488273  -1.709514792
   1.709514792   4.478488273   1.709514792
   1.709514792  -4.478488273  -1.709514792

ATOMIC_POSITIONS (angstrom)
Ti       1.709514792   1.543498183  -1.709514792
Ti       1.709514792   4.427835382  -1.709514792
Nb       1.709514792  -1.492845292  -1.709514792
End final coordinates

     A final scf calculation at the relaxed structure.
     The G-vectors are recalculated for the final unit cell
     Results may differ from those at the preceding step.

     bravais-lattice index     =            0
     lattice parameter (alat)  =       1.8897  a.u.
     unit-cell volume          =     353.2919 (a.u.)^3
     number of atoms/cell      =            3
     number of atomic types    =            2
     number of electrons       =        37.00
     number of Kohn-Sham states=           23
     kinetic-energy cutoff     =      50.0000  Ry
     charge density cutoff     =     500.0000  Ry
     convergence threshold     =      1.0E-12
     mixing beta               =       0.6000
     number of iterations used =            8  plain     mixing
     Exchange-correlation      = SLA PW PBE PBE ( 1  4  3  4 0 0)

     celldm(1)=   1.889726  celldm(2)=   0.000000  celldm(3)=   0.000000
     celldm(4)=   0.000000  celldm(5)=   0.000000  celldm(6)=   0.000000

     crystal axes: (cart. coord. in units of alat)
               a(1) = (  -1.709515   4.478488  -1.709515 )
               a(2) = (   1.709515   4.478488   1.709515 )
               a(3) = (   1.709515  -4.478488  -1.709515 )

     reciprocal axes: (cart. coord. in units 2 pi/alat)
               b(1) = ( -0.000000  0.111645 -0.292481 )
               b(2) = (  0.292481  0.111645 -0.000000 )
               b(3) = (  0.292481  0.000000 -0.292481 )

     PseudoPot. # 1 for Nb read from file:
     /home/u16/abhishekkt/fp/krishna/calculations/pseudopotentials/Nb.pbe-nsp-van.UPF
     MD5 check sum: c44c1a86bf31974e1e832c2ec821fd5f
     Pseudo is Ultrasoft + core correction, Zval = 13.0
     Generated by new atomic code, or converted to UPF format
     Using radial grid of  887 points,  6 beta functions with:
                l(1) =   0
                l(2) =   0
                l(3) =   1
                l(4) =   1
                l(5) =   2
                l(6) =   2
     Q(r) pseudized with  6 coefficients,  rinner =    1.000   1.000   1.000
                                                       1.000   1.000

     PseudoPot. # 2 for Ti read from file:
     /home/u16/abhishekkt/fp/krishna/calculations/pseudopotentials/Ti.pbe-sp-van_ak.UPF
     MD5 check sum: 84d3ec9e8983e94242673103c800fb48
     Pseudo is Ultrasoft, Zval = 12.0
     Generated by new atomic code, or converted to UPF format
     Using radial grid of  851 points,  6 beta functions with:
                l(1) =   0
                l(2) =   0
                l(3) =   1
                l(4) =   1
                l(5) =   2
                l(6) =   2
     Q(r) pseudized with  8 coefficients,  rinner =    1.000   1.000   1.000
                                                       1.000   1.000

     atomic species   valence    mass     pseudopotential
        Nb            13.00    92.90638     Nb( 1.00)
        Ti            12.00    47.86700     Ti( 1.00)

      8 Sym. Ops. (no inversion) found
          (note:  8 additional sym.ops. were found but ignored
           their fractional translations are incommensurate with FFT grid)

   Cartesian axes

     site n.     atom                  positions (alat units)
         1           Ti  tau(   1) = (   1.7095149   1.5434983  -1.7095149  )
         2           Ti  tau(   2) = (   1.7095149   4.4278357  -1.7095149  )
         3           Nb  tau(   3) = (   1.7095149  -1.4928454  -1.7095149  )

     number of k points=   244  Marzari-Vanderbilt smearing, width (Ry)=  0.0200

     Number of k-points >= 100: set verbosity='high' to print them.

     Initial potential from superposition of free atoms

     starting charge   34.99718, renormalised to   37.00000
     Starting wfcs are   33 randomized atomic wfcs

     Self-consistent Calculation

[...]

     iteration # 17     ecut=    50.00 Ry     beta= 0.60
     Davidson diagonalization with overlap
     c_bands:  1 eigenvalues not converged
     ethr =  1.00E-13,  avg # of iterations =  4.6

[...]

     total energy              =    -351.22693972 Ry
     Harris-Foulkes estimate   =    -351.22693972 Ry
     estimated scf accuracy    <          1.2E-12 Ry

     iteration # 20     ecut=    50.00 Ry     beta= 0.60
     Davidson diagonalization with overlap
     ethr =  1.00E-13,  avg # of iterations =  1.0

     End of self-consistent calculation

     Number of k-points >= 100: set verbosity='high' to print the bands.

     the Fermi energy is    14.9710 ev

!    total energy              =    -351.22693972 Ry
     Harris-Foulkes estimate   =    -351.22693972 Ry
     estimated scf accuracy    <          1.5E-14 Ry

     The total energy is the sum of the following terms:

     one-electron contribution =     -98.99311788 Ry
     hartree contribution      =      63.99504114 Ry
     xc contribution           =     -47.52909090 Ry
     ewald contribution        =    -268.69825914 Ry
     smearing contrib. (-TS)   =      -0.00151294 Ry

     convergence has been achieved in  20 iterations

     Forces acting on atoms (cartesian axes, Ry/au):

     atom    1 type  2   force =    -0.00000000   -0.00000343    0.00000000
     atom    2 type  2   force =    -0.00000000   -0.00000086    0.00000000
     atom    3 type  1   force =     0.00000000    0.00000429   -0.00000000

     Total force =     0.000006     Total SCF correction =     0.000000

     Computing stress (Cartesian axis) and pressure

          total   stress  (Ry/bohr**3)                   (kbar)     P=   -0.47
  -0.00000421  -0.00000000   0.00000000         -0.62     -0.00      0.00
  -0.00000000  -0.00000116   0.00000000         -0.00     -0.17      0.00
   0.00000000   0.00000000  -0.00000421          0.00      0.00     -0.62

     General routines

     Parallel routines

      29h

   This run was terminated on:  14:53:51  22Jan2020

   JOB DONE.