     Program PWSCF v.6.3MaX starts on 10Feb2020 at 14: 2:22

     R & G space division:  proc/nbgrp/npool/nimage =       4
     Waiting for input...
     Reading input from standard input

     Current dimensions of program PWSCF are:
     Max number of different atomic species (ntypx) = 10
     Max number of k-points (npk) =  40000
     Max angular momentum in pseudopotentials (lmaxx) =  3
     Message from routine iosys:
     minimal I/O required, wf_collect reset to FALSE

     Subspace diagonalization in iterative solution of the eigenvalue problem:
     a serial algorithm will be used

     bravais-lattice index     =            0
     lattice parameter (alat)  =       1.8897  a.u.
     unit-cell volume          =    1077.7903 (a.u.)^3
     number of atoms/cell      =            8
     number of atomic types    =            2
     number of electrons       =       101.00
     number of Kohn-Sham states=           61
     kinetic-energy cutoff     =      40.0000  Ry
     charge density cutoff     =     400.0000  Ry
     convergence threshold     =      1.0E-10
     mixing beta               =       0.6000
     number of iterations used =            8  plain     mixing
     Exchange-correlation      = SLA PW PBE PBE ( 1  4  3  4 0 0)
     nstep                     =           50

     celldm(1)=   1.889726  celldm(2)=   0.000000  celldm(3)=   0.000000
     celldm(4)=   0.000000  celldm(5)=   0.000000  celldm(6)=   0.000000

     crystal axes: (cart. coord. in units of alat)
               a(1) = (   1.522502  -2.637051   0.000000 )
               a(2) = (   0.000000   0.000000  -4.972461 )
               a(3) = (   9.135012   5.274102   0.000000 )

     reciprocal axes: (cart. coord. in units 2 pi/alat)
               b(1) = (  0.164203 -0.284409  0.000000 )
               b(2) = (  0.000000  0.000000 -0.201108 )
               b(3) = (  0.082102  0.047401  0.000000 )

     PseudoPot. # 1 for Nb read from file:
     ./Nb.pbe-nsp-van.UPF
     MD5 check sum: 0a22fc7fb0ba19a08ca5db297a5d2854
     Pseudo is Ultrasoft + core correction, Zval = 13.0
     Generated by new atomic code, or converted to UPF format
     Using radial grid of  887 points,  6 beta functions with:
                l(1) =   0
                l(2) =   0
                l(3) =   1
                l(4) =   1
                l(5) =   2
                l(6) =   2
     Q(r) pseudized with  6 coefficients,  rinner =    1.000   1.000   1.000
                                                       1.000   1.000

     PseudoPot. # 2 for Ti read from file:
     ./Ti.pbe-sp-van_ak.UPF
     MD5 check sum: f98fea3e8887528921fefa5636a534ca
     Pseudo is Ultrasoft, Zval = 12.0
     Generated by new atomic code, or converted to UPF format
     Using radial grid of  851 points,  6 beta functions with:
                l(1) =   0
                l(2) =   0
                l(3) =   1
                l(4) =   1
                l(5) =   2
                l(6) =   2
     Q(r) pseudized with  8 coefficients,  rinner =    1.000   1.000   1.000
                                                       1.000   1.000

     atomic species   valence    mass     pseudopotential
        Nb            13.00    92.90638     Nb( 1.00)
        Ti            12.00    47.86700     Ti( 1.00)

      4 Sym. Ops. (no inversion) found

   Cartesian axes

     site n.     atom                  positions (alat units)
         1           Nb  tau(   1) = (   3.0450042   0.0000000  -4.9724614  )
         2           Ti  tau(   2) = (   3.0450058  -1.7580350  -2.4862307  )
         3           Ti  tau(   3) = (   6.0900085   0.0000000  -4.9724614  )
         4           Nb  tau(   4) = (   4.5675079   0.8790162  -2.4862307  )
         5           Ti  tau(   5) = (   7.6125106   2.6370512  -4.9724614  )
         6           Nb  tau(   6) = (   7.6125121   0.8790162  -2.4862307  )
         7           Nb  tau(   7) = (  10.6575148   2.6370512  -4.9724614  )
         8           Nb  tau(   8) = (   9.1350142   3.5160674  -2.4862307  )

     number of k points=   240  Marzari-Vanderbilt smearing, width (Ry)=  0.0200

     Number of k-points >= 100: set verbosity='high' to print them.

     Initial potential from superposition of free atoms

     starting charge   97.98620, renormalised to  101.00000
     Starting wfcs are   95 randomized atomic wfcs

     Self-consistent Calculation

     iteration #  1     ecut=    40.00 Ry     beta= 0.60
     Davidson diagonalization with overlap
     ethr =  1.00E-02,  avg # of iterations =  2.7

     total energy              =    -874.23581486 Ry
     Harris-Foulkes estimate   =    -944.89039572 Ry
     estimated scf accuracy    <      86.86965048 Ry

[...]

     iteration # 28     ecut=    40.00 Ry     beta= 0.60
     Davidson diagonalization with overlap
     c_bands:  1 eigenvalues not converged
     c_bands:  1 eigenvalues not converged
     ethr =  9.11E-07,  avg # of iterations =  5.7

[...]

     End of self-consistent calculation

     Number of k-points >= 100: set verbosity='high' to print the bands.

     the Fermi energy is    14.4400 ev

!    total energy              =    -939.45425437 Ry
     Harris-Foulkes estimate   =    -939.45425437 Ry
     estimated scf accuracy    <          7.6E-11 Ry

     The total energy is the sum of the following terms:

     one-electron contribution =    -245.75362748 Ry
     hartree contribution      =     160.02775414 Ry
     xc contribution           =    -134.90235812 Ry
     ewald contribution        =    -718.82076436 Ry
     smearing contrib. (-TS)   =      -0.00525854 Ry

     convergence has been achieved in  44 iterations

     Forces acting on atoms (cartesian axes, Ry/au):

     atom    1 type  1   force =    -0.00050201   -0.00028984    0.00000000
     atom    2 type  2   force =     0.00187292    0.00108133    0.00000000
     atom    3 type  2   force =    -0.00427047   -0.00246556    0.00000000
     atom    4 type  1   force =     0.00292928    0.00169122    0.00000000
     atom    5 type  2   force =     0.00233027    0.00134538    0.00000000
     atom    6 type  1   force =     0.00130437    0.00075308    0.00000000
     atom    7 type  1   force =     0.00202556    0.00116946    0.00000000
     atom    8 type  1   force =    -0.00568992   -0.00328508    0.00000000

     Total force =     0.009946     Total SCF correction =     0.000026

     Computing stress (Cartesian axis) and pressure

          total   stress  (Ry/bohr**3)                   (kbar)     P= -120.93
  -0.00089276   0.00002368   0.00000000       -131.33      3.48      0.00
   0.00002368  -0.00092010   0.00000000          3.48   -135.35      0.00
   0.00000000   0.00000000  -0.00065328          0.00      0.00    -96.10

     BFGS Geometry Optimization

     number of scf cycles    =   1
     number of bfgs steps    =   0

     enthalpy new            =    -939.4542543722 Ry

     new trust radius        =       0.1510832751 bohr
     new conv_thr            =            1.0E-10 Ry

     new unit-cell volume =   1012.68240 a.u.^3 (   150.06405 Ang^3 )
     density =      6.72932 g/cm^3

CELL_PARAMETERS (alat=  1.88972599)
   1.486960308  -2.575490988   0.000000000
   0.000000000   0.000000000  -4.891250836
   8.934248946   5.158191405   0.000000000

ATOMIC_POSITIONS (angstrom)
Nb       2.976782577   0.001652354  -4.891250836
Ti       2.976972612  -1.715233639  -2.445625418
Ti       5.951874609   0.002328671  -4.891250836
Nb       4.467601411   0.862375353  -2.445625418
Ti       7.445372889   2.581594359  -4.891250836
Nb       7.443802835   0.863692178  -2.445625418
Nb      10.422257578   2.583305666  -4.891250836
Nb       8.930265042   3.438895587  -2.445625418

     NEW-OLD atomic charge density approx. for the potential

     Check: negative/imaginary core charge=   -0.000001    0.000000
     extrapolated charge   94.70022, renormalised to  101.00000

[...]

     enthalpy old            =    -939.4542543722 Ry
     enthalpy new            =    -939.4942877150 Ry

     CASE: enthalpy_new < enthalpy_old

[...]

     WARNING: bfgs curvature condition failed, Theta= 0.994
     new trust radius        =       0.0475465373 bohr
     new conv_thr            =            1.0E-10 Ry

[...]

     WARNING: bfgs curvature condition failed, Theta= 0.755
     new trust radius        =       0.0074568669 bohr
     new conv_thr            =            1.0E-10 Ry

[...]

     NEW-OLD atomic charge density approx. for the potential

     Check: negative/imaginary core charge=   -0.000001    0.000000
     extrapolated charge  101.18336, renormalised to  101.00000

[...]

     NEW-OLD atomic charge density approx. for the potential
     extrapolated charge  101.27800, renormalised to  101.00000

[...]

     Total force =     0.000148     Total SCF correction =     0.000015
     SCF correction compared to forces is large: reduce conv_thr to get better values

[...]

     Threshold (ethr) on eigenvalues was too large:
     Diagonalizing with lowered threshold

     Davidson diagonalization with overlap
     ethr =  1.34E-08,  avg # of iterations =  1.0

[...]

     small trust_radius: resetting bfgs history

[...]

     number of scf cycles    =  37
     number of bfgs steps    =  36

     enthalpy old            =    -939.5429241069 Ry
     enthalpy new            =    -939.5429241075 Ry

     CASE: enthalpy_new < enthalpy_old

     Message from routine bfgs:
     history already reset at previous step: stopping
     small trust_radius: resetting bfgs history

     new trust radius        =       0.0000102732 bohr
     new conv_thr            =            1.0E-12 Ry

     new unit-cell volume =    968.63675 a.u.^3 (   143.53716 Ang^3 )
     density =      7.03531 g/cm^3

[...]

ATOMIC_POSITIONS (angstrom)
Nb       3.210140561   0.279904481  -4.850912957
Ti       2.794446966  -1.533569036  -2.425456479
Ti       6.259476434   0.466968338  -4.850912957
Nb       4.428885210   0.983545528  -2.425456479
Ti       7.850210710   2.958850406  -4.850912957
Nb       7.450303537   1.154491183  -2.425456479
Nb      10.934556987   3.166127527  -4.850912957
Nb       9.127206605   3.696122822  -2.425456479

     NEW-OLD atomic charge density approx. for the potential
     extrapolated charge  100.99979, renormalised to  101.00000

[...]

     Threshold (ethr) on eigenvalues was too large:
     Diagonalizing with lowered threshold

     Davidson diagonalization with overlap
     ethr =  3.52E-12,  avg # of iterations =  2.3

[...]

     Total force =     0.000012     Total SCF correction =     0.000001
     SCF correction compared to forces is large: reduce conv_thr to get better values

[...]

     bfgs converged in  38 scf cycles and  37 bfgs steps
     (criteria: energy <  1.0E-10 Ry, force <  1.0E-05Ry/Bohr, cell <  1.0E-03kbar)

     End of BFGS Geometry Optimization

     Final enthalpy =    -939.5429241078 Ry
Begin final coordinates
     new unit-cell volume =    968.63675 a.u.^3 (   143.53716 Ang^3 )
     density =      7.03531 g/cm^3

CELL_PARAMETERS (alat=  1.88972599)
   1.362665873  -2.360206724   0.000000000
   0.000000000   0.000000000  -4.850912957
   9.402691267   5.428646679   0.000000000

ATOMIC_POSITIONS (angstrom)
Nb       3.210140561   0.279904481  -4.850912957
Ti       2.794446966  -1.533569036  -2.425456479
Ti       6.259476434   0.466968338  -4.850912957
Nb       4.428885210   0.983545528  -2.425456479
Ti       7.850210710   2.958850406  -4.850912957
Nb       7.450303537   1.154491183  -2.425456479
Nb      10.934556987   3.166127527  -4.850912957
Nb       9.127206605   3.696122822  -2.425456479
End final coordinates

     A final scf calculation at the relaxed structure.
     The G-vectors are recalculated for the final unit cell
     Results may differ from those at the preceding step.

     bravais-lattice index     =            0
     lattice parameter (alat)  =       1.8897  a.u.
     unit-cell volume          =     968.6368 (a.u.)^3
     number of atoms/cell      =            8
     number of atomic types    =            2
     number of electrons       =       101.00
     number of Kohn-Sham states=           61
     kinetic-energy cutoff     =      40.0000  Ry
     charge density cutoff     =     400.0000  Ry
     convergence threshold     =      1.0E-12
     mixing beta               =       0.6000
     number of iterations used =            8  plain     mixing
     Exchange-correlation      = SLA PW PBE PBE ( 1  4  3  4 0 0)

     celldm(1)=   1.889726  celldm(2)=   0.000000  celldm(3)=   0.000000
     celldm(4)=   0.000000  celldm(5)=   0.000000  celldm(6)=   0.000000

     crystal axes: (cart. coord. in units of alat)
               a(1) = (   1.362666  -2.360207   0.000000 )
               a(2) = (   0.000000   0.000000  -4.850913 )
               a(3) = (   9.402691   5.428647   0.000000 )

     reciprocal axes: (cart. coord. in units 2 pi/alat)
               b(1) = (  0.183464 -0.317769  0.000000 )
               b(2) = (  0.000000  0.000000 -0.206147 )
               b(3) = (  0.079764  0.046052  0.000000 )

     PseudoPot. # 1 for Nb read from file:
     ./Nb.pbe-nsp-van.UPF
     MD5 check sum: 0a22fc7fb0ba19a08ca5db297a5d2854
     Pseudo is Ultrasoft + core correction, Zval = 13.0
     Generated by new atomic code, or converted to UPF format
     Using radial grid of  887 points,  6 beta functions with:
                l(1) =   0
                l(2) =   0
                l(3) =   1
                l(4) =   1
                l(5) =   2
                l(6) =   2
     Q(r) pseudized with  6 coefficients,  rinner =    1.000   1.000   1.000
                                                       1.000   1.000

     PseudoPot. # 2 for Ti read from file:
     ./Ti.pbe-sp-van_ak.UPF
     MD5 check sum: f98fea3e8887528921fefa5636a534ca
     Pseudo is Ultrasoft, Zval = 12.0
     Generated by new atomic code, or converted to UPF format
     Using radial grid of  851 points,  6 beta functions with:
                l(1) =   0
                l(2) =   0
                l(3) =   1
                l(4) =   1
                l(5) =   2
                l(6) =   2
     Q(r) pseudized with  8 coefficients,  rinner =    1.000   1.000   1.000
                                                       1.000   1.000

     atomic species   valence    mass     pseudopotential
        Nb            13.00    92.90638     Nb( 1.00)
        Ti            12.00    47.86700     Ti( 1.00)

      4 Sym. Ops. (no inversion) found

   Cartesian axes

     site n.     atom                  positions (alat units)
         1           Nb  tau(   1) = (   3.2101408   0.2799045  -4.8509133  )
         2           Ti  tau(   2) = (   2.7944472  -1.5335692  -2.4254567  )
         3           Ti  tau(   3) = (   6.2594769   0.4669684  -4.8509133  )
         4           Nb  tau(   4) = (   4.4288855   0.9835456  -2.4254567  )
         5           Ti  tau(   5) = (   7.8502113   2.9588506  -4.8509133  )
         6           Nb  tau(   6) = (   7.4503041   1.1544913  -2.4254567  )
         7           Nb  tau(   7) = (  10.9345578   3.1661278  -4.8509133  )
         8           Nb  tau(   8) = (   9.1272073   3.6961231  -2.4254567  )

     number of k points=   240  Marzari-Vanderbilt smearing, width (Ry)=  0.0200

     Number of k-points >= 100: set verbosity='high' to print them.

     Initial potential from superposition of free atoms

     starting charge   97.98620, renormalised to  101.00000
     Starting wfcs are   95 randomized atomic wfcs

     Self-consistent Calculation

[...]

     iteration # 28     ecut=    40.00 Ry     beta= 0.60
     Davidson diagonalization with overlap
     c_bands:  1 eigenvalues not converged
     ethr =  1.11E-05,  avg # of iterations =  3.0

[...]

     total energy              =    -939.53970705 Ry
     Harris-Foulkes estimate   =    -939.53970705 Ry
     estimated scf accuracy    <          1.0E-12 Ry

     iteration # 52     ecut=    40.00 Ry     beta= 0.60
     Davidson diagonalization with overlap
     ethr =  1.00E-13,  avg # of iterations =  1.0

     End of self-consistent calculation

     Number of k-points >= 100: set verbosity='high' to print the bands.

     the Fermi energy is    16.2109 ev

!    total energy              =    -939.53970705 Ry
     Harris-Foulkes estimate   =    -939.53970705 Ry
     estimated scf accuracy    <          2.2E-13 Ry

     The total energy is the sum of the following terms:

     one-electron contribution =    -209.91892720 Ry
     hartree contribution      =     149.95197957 Ry
     xc contribution           =    -135.74562137 Ry
     ewald contribution        =    -743.82654318 Ry
     smearing contrib. (-TS)   =      -0.00059487 Ry

     convergence has been achieved in  52 iterations

     Forces acting on atoms (cartesian axes, Ry/au):

     atom    1 type  1   force =     0.00001454    0.00000840    0.00000000
     atom    2 type  2   force =     0.00001485    0.00000858    0.00000000
     atom    3 type  2   force =     0.00007911    0.00004568    0.00000000
     atom    4 type  1   force =    -0.00002108   -0.00001217    0.00000000
     atom    5 type  2   force =    -0.00002586   -0.00001493    0.00000000
     atom    6 type  1   force =    -0.00003256   -0.00001880    0.00000000
     atom    7 type  1   force =    -0.00000321   -0.00000185    0.00000000
     atom    8 type  1   force =    -0.00002579   -0.00001489    0.00000000

     Total force =     0.000113     Total SCF correction =     0.000001

     Computing stress (Cartesian axis) and pressure

          total   stress  (Ry/bohr**3)                   (kbar)     P=   -1.55
  -0.00000502   0.00000998   0.00000000         -0.74      1.47      0.00
   0.00000998  -0.00001654   0.00000000          1.47     -2.43      0.00
   0.00000000   0.00000000  -0.00001000          0.00      0.00     -1.47

     General routines

     Parallel routines

      35h

   This run was terminated on:   3:37:56  11Feb2020

   JOB DONE.