     Program PWSCF v.6.3MaX starts on 25Mar2020 at 13:28:36

     R & G space division:  proc/nbgrp/npool/nimage =       4
     Waiting for input...
     Reading input from standard input

     Current dimensions of program PWSCF are:
     Max number of different atomic species (ntypx) = 10
     Max number of k-points (npk) =  40000
     Max angular momentum in pseudopotentials (lmaxx) =  3
     Message from routine iosys:
     minimal I/O required, wf_collect reset to FALSE

     Subspace diagonalization in iterative solution of the eigenvalue problem:
     a serial algorithm will be used

     bravais-lattice index     =            0
     lattice parameter (alat)  =       1.8897  a.u.
     unit-cell volume          =    1077.7903 (a.u.)^3
     number of atoms/cell      =            8
     number of atomic types    =            2
     number of electrons       =       100.00
     number of Kohn-Sham states=           60
     kinetic-energy cutoff     =      40.0000  Ry
     charge density cutoff     =     400.0000  Ry
     convergence threshold     =      1.0E-10
     mixing beta               =       0.6000
     number of iterations used =            8  plain     mixing
     Exchange-correlation      = SLA PW PBE PBE ( 1  4  3  4 0 0)
     nstep                     =           50

     celldm(1)=   1.889726  celldm(2)=   0.000000  celldm(3)=   0.000000
     celldm(4)=   0.000000  celldm(5)=   0.000000  celldm(6)=   0.000000

     crystal axes: (cart. coord. in units of alat)
               a(1) = (  -1.522502   2.637051   4.972461 )
               a(2) = (  -1.522502   2.637051  -4.972461 )
               a(3) = (  -4.567506  -2.637051   0.000000 )

     reciprocal axes: (cart. coord. in units 2 pi/alat)
               b(1) = ( -0.082102  0.142204  0.100554 )
               b(2) = ( -0.082102  0.142204 -0.100554 )
               b(3) = ( -0.164203 -0.094803  0.000000 )

     PseudoPot. # 1 for Nb read from file:
     ./Nb.pbe-nsp-van.UPF
     MD5 check sum: 0a22fc7fb0ba19a08ca5db297a5d2854
     Pseudo is Ultrasoft + core correction, Zval = 13.0
     Generated by new atomic code, or converted to UPF format
     Using radial grid of  887 points,  6 beta functions with:
                l(1) =   0
                l(2) =   0
                l(3) =   1
                l(4) =   1
                l(5) =   2
                l(6) =   2
     Q(r) pseudized with  6 coefficients,  rinner =    1.000   1.000   1.000
                                                       1.000   1.000

     PseudoPot. # 2 for Ti read from file:
     ./Ti.pbe-sp-van_ak.UPF
     MD5 check sum: f98fea3e8887528921fefa5636a534ca
     Pseudo is Ultrasoft, Zval = 12.0
     Generated by new atomic code, or converted to UPF format
     Using radial grid of  851 points,  6 beta functions with:
                l(1) =   0
                l(2) =   0
                l(3) =   1
                l(4) =   1
                l(5) =   2
                l(6) =   2
     Q(r) pseudized with  8 coefficients,  rinner =    1.000   1.000   1.000
                                                       1.000   1.000

     atomic species   valence    mass     pseudopotential
        Nb            13.00    92.90638     Nb( 1.00)
        Ti            12.00    47.86700     Ti( 1.00)

      2 Sym. Ops. (no inversion) found ( 1 have fractional translation)
          (note:  2 additional sym.ops. were found but ignored
           their fractional translations are incommensurate with FFT grid)

   Cartesian axes

     site n.     atom                  positions (alat units)
         1           Ti  tau(   1) = (  -7.6125106   2.6370512   0.0000000  )
         2           Ti  tau(   2) = (  -3.0450027   3.5160674  -2.4862307  )
         3           Ti  tau(   3) = (  -4.5675063   2.6370512   0.0000000  )
         4           Ti  tau(   4) = (  -4.5675048   0.8790162  -2.4862307  )
         5           Nb  tau(   5) = (  -6.0900085   0.0000000   0.0000000  )
         6           Nb  tau(   6) = (  -3.0450027   3.5160674   2.4862307  )
         7           Nb  tau(   7) = (  -3.0450042   0.0000000   0.0000000  )
         8           Nb  tau(   8) = (  -4.5675048   0.8790162   2.4862307  )

     number of k points=   312  Marzari-Vanderbilt smearing, width (Ry)=  0.0200

     Number of k-points >= 100: set verbosity='high' to print them.

     Initial potential from superposition of free atoms

     starting charge   95.98889, renormalised to  100.00000
     Starting wfcs are   92 randomized atomic wfcs

     Self-consistent Calculation

     iteration #  1     ecut=    40.00 Ry     beta= 0.60
     Davidson diagonalization with overlap
     ethr =  1.00E-02,  avg # of iterations =  3.0

     total energy              =    -918.01174882 Ry
     Harris-Foulkes estimate   =    -941.89379260 Ry
     estimated scf accuracy    <      30.14499896 Ry

[...]

     End of self-consistent calculation

     Number of k-points >= 100: set verbosity='high' to print the bands.

     the Fermi energy is    13.8326 ev

!    total energy              =    -938.18968768 Ry
     Harris-Foulkes estimate   =    -938.18968768 Ry
     estimated scf accuracy    <          5.9E-11 Ry

     The total energy is the sum of the following terms:

     one-electron contribution =    -272.61341325 Ry
     hartree contribution      =     170.14681048 Ry
     xc contribution           =    -130.99442973 Ry
     ewald contribution        =    -704.72082747 Ry
     smearing contrib. (-TS)   =      -0.00782771 Ry

     convergence has been achieved in  28 iterations

     Forces acting on atoms (cartesian axes, Ry/au):

     atom    1 type  2   force =     0.00128958   -0.00057835    0.00333716
     atom    2 type  2   force =    -0.00012208   -0.00139690    0.00333912
     atom    3 type  2   force =     0.00014392    0.00140599   -0.00333716
     atom    4 type  2   force =    -0.00127079    0.00059273   -0.00333912
     atom    5 type  1   force =    -0.00230131   -0.00004437   -0.00770230
     atom    6 type  1   force =     0.00116883    0.00195896   -0.00770289
     atom    7 type  1   force =    -0.00118908   -0.00197081    0.00770230
     atom    8 type  1   force =     0.00228092    0.00003276    0.00770289

     Total force =     0.017630     Total SCF correction =     0.000012

     Computing stress (Cartesian axis) and pressure

          total   stress  (Ry/bohr**3)                   (kbar)     P= -125.54
  -0.00092637  -0.00002293   0.00001507       -136.27     -3.37      2.22
  -0.00002293  -0.00089990  -0.00002611         -3.37   -132.38     -3.84
   0.00001507  -0.00002611  -0.00073398          2.22     -3.84   -107.97

     BFGS Geometry Optimization

     number of scf cycles    =   1
     number of bfgs steps    =   0

     enthalpy new            =    -938.1896876844 Ry

     new trust radius        =       0.1521291587 bohr
     new conv_thr            =            1.0E-10 Ry

     new unit-cell volume =   1010.25826 a.u.^3 (   149.70483 Ang^3 )
     density =      6.24588 g/cm^3

CELL_PARAMETERS (alat=  1.88972599)
  -1.486879443   2.575350926   4.878923769
  -1.490627218   2.581842262  -4.883513846
  -4.460214509  -2.575106233  -0.000000000

ATOMIC_POSITIONS (angstrom)
Ti      -7.437053715   2.581786244  -0.002856076
Ti      -2.977496552   3.439608798  -2.442316938
Ti      -4.463163946   2.581070162  -0.005176559
Ti      -4.463822871   0.863789219  -2.444639463
Nb      -5.950158958   0.003470769  -0.006296576
Nb      -2.974958585   3.438102444   2.433165008
Nb      -2.975096446   0.000723437   0.002854018
Nb      -4.460110653   0.860249003   2.442316205

     NEW-OLD atomic charge density approx. for the potential

     Check: negative/imaginary core charge=   -0.000001    0.000000
     extrapolated charge   93.58349, renormalised to  100.00000

[...]

     iteration #  1     ecut=    40.00 Ry     beta= 0.60
     Davidson diagonalization with overlap
     c_bands:  1 eigenvalues not converged
     c_bands:  1 eigenvalues not converged
     c_bands:  1 eigenvalues not converged
     c_bands:  2 eigenvalues not converged
     c_bands:  1 eigenvalues not converged
     c_bands:  2 eigenvalues not converged
     c_bands:  1 eigenvalues not converged
     c_bands:  1 eigenvalues not converged
     c_bands:  1 eigenvalues not converged
     c_bands:  1 eigenvalues not converged
     c_bands:  3 eigenvalues not converged
     c_bands:  1 eigenvalues not converged
     c_bands:  1 eigenvalues not converged
     c_bands:  1 eigenvalues not converged
     c_bands:  1 eigenvalues not converged
     c_bands:  1 eigenvalues not converged
     c_bands:  2 eigenvalues not converged
     c_bands:  2 eigenvalues not converged
     c_bands:  1 eigenvalues not converged
     c_bands:  1 eigenvalues not converged
     c_bands:  1 eigenvalues not converged
     c_bands:  2 eigenvalues not converged
     c_bands:  3 eigenvalues not converged
     c_bands:  1 eigenvalues not converged
     c_bands:  1 eigenvalues not converged
     c_bands:  2 eigenvalues not converged
     c_bands:  1 eigenvalues not converged
     c_bands:  2 eigenvalues not converged
     c_bands:  1 eigenvalues not converged
     c_bands:  1 eigenvalues not converged
     c_bands:  1 eigenvalues not converged
     c_bands:  1 eigenvalues not converged
     c_bands:  2 eigenvalues not converged
     c_bands:  2 eigenvalues not converged
     c_bands:  1 eigenvalues not converged
     c_bands:  1 eigenvalues not converged
     c_bands:  2 eigenvalues not converged
     c_bands:  1 eigenvalues not converged
     c_bands:  1 eigenvalues not converged
     c_bands:  2 eigenvalues not converged
     c_bands:  1 eigenvalues not converged
     c_bands:  1 eigenvalues not converged
     c_bands:  1 eigenvalues not converged
     c_bands:  1 eigenvalues not converged
     c_bands:  2 eigenvalues not converged
     c_bands:  3 eigenvalues not converged
     c_bands:  1 eigenvalues not converged
     c_bands:  1 eigenvalues not converged
     c_bands:  1 eigenvalues not converged
     c_bands:  1 eigenvalues not converged
     c_bands:  1 eigenvalues not converged
     c_bands:  1 eigenvalues not converged
     c_bands:  1 eigenvalues not converged
     c_bands:  1 eigenvalues not converged
     c_bands:  1 eigenvalues not converged
     c_bands:  1 eigenvalues not converged
     c_bands:  1 eigenvalues not converged
     c_bands:  1 eigenvalues not converged
     c_bands:  1 eigenvalues not converged
     c_bands:  1 eigenvalues not converged
[...]
     c_bands:  1 eigenvalues not converged
     c_bands:  2 eigenvalues not converged
     c_bands:  1 eigenvalues not converged
     c_bands:  1 eigenvalues not converged
     c_bands:  1 eigenvalues not converged
     c_bands:  2 eigenvalues not converged
     c_bands:  2 eigenvalues not converged
     c_bands:  1 eigenvalues not converged
     c_bands:  1 eigenvalues not converged
     c_bands:  1 eigenvalues not converged
     c_bands:  1 eigenvalues not converged
     c_bands:  2 eigenvalues not converged
     c_bands:  2 eigenvalues not converged
     c_bands:  2 eigenvalues not converged
     c_bands:  2 eigenvalues not converged
     ethr =  1.00E-06,  avg # of iterations = 19.0

[...]

     enthalpy old            =    -938.1896876844 Ry
     enthalpy new            =    -938.2335855399 Ry

     CASE: enthalpy_new < enthalpy_old

[...]

     WARNING: bfgs curvature condition failed, Theta= 0.997
     new trust radius        =       0.0440389596 bohr
     new conv_thr            =            1.0E-10 Ry

[...]

     NEW-OLD atomic charge density approx. for the potential

     Check: negative/imaginary core charge=   -0.000001    0.000000
     extrapolated charge  100.08571, renormalised to  100.00000

[...]

     NEW-OLD atomic charge density approx. for the potential
     extrapolated charge  100.01823, renormalised to  100.00000

[...]

     iteration #  1     ecut=    40.00 Ry     beta= 0.60
     Davidson diagonalization with overlap
     c_bands:  1 eigenvalues not converged
     c_bands:  1 eigenvalues not converged
     c_bands:  1 eigenvalues not converged
     c_bands:  1 eigenvalues not converged
     c_bands:  1 eigenvalues not converged
     c_bands:  1 eigenvalues not converged
     c_bands:  1 eigenvalues not converged
     c_bands:  1 eigenvalues not converged
     c_bands:  1 eigenvalues not converged
     c_bands:  1 eigenvalues not converged
     c_bands:  1 eigenvalues not converged
     c_bands:  1 eigenvalues not converged
     c_bands:  1 eigenvalues not converged
     c_bands:  1 eigenvalues not converged
     c_bands:  1 eigenvalues not converged
     c_bands:  1 eigenvalues not converged
     c_bands:  1 eigenvalues not converged
     c_bands:  1 eigenvalues not converged
     c_bands:  1 eigenvalues not converged
     ethr =  1.00E-06,  avg # of iterations = 10.5

[...]

     Threshold (ethr) on eigenvalues was too large:
     Diagonalizing with lowered threshold

     Davidson diagonalization with overlap
     ethr =  8.76E-09,  avg # of iterations =  4.1

[...]

     Self-consistent Calculation

[...]

     Threshold (ethr) on eigenvalues was too large:
     Diagonalizing with lowered threshold

     Davidson diagonalization with overlap
     ethr =  1.03E-08,  avg # of iterations =  3.0

[...]

     total energy              =    -938.32276823 Ry
     Harris-Foulkes estimate   =    -938.32276823 Ry
     estimated scf accuracy    <          8.6E-11 Ry

     iteration # 13     ecut=    40.00 Ry     beta= 0.60
     Davidson diagonalization with overlap
     ethr =  1.00E-13,  avg # of iterations =  3.4

     End of self-consistent calculation

     Number of k-points >= 100: set verbosity='high' to print the bands.

     the Fermi energy is    15.7574 ev

!    total energy              =    -938.32276823 Ry
     Harris-Foulkes estimate   =    -938.32276823 Ry
     estimated scf accuracy    <          3.8E-12 Ry

     The total energy is the sum of the following terms:

     one-electron contribution =    -227.83013187 Ry
     hartree contribution      =     157.04423895 Ry
     xc contribution           =    -131.95991805 Ry
     ewald contribution        =    -735.57601101 Ry
     smearing contrib. (-TS)   =      -0.00094624 Ry

     convergence has been achieved in  13 iterations

     Forces acting on atoms (cartesian axes, Ry/au):

     atom    1 type  2   force =     0.00006327   -0.00006088    0.00005074
     atom    2 type  2   force =     0.00002124   -0.00007762    0.00006258
     atom    3 type  2   force =    -0.00002108    0.00008524   -0.00005074
     atom    4 type  2   force =    -0.00005660    0.00005720   -0.00006258
     atom    5 type  1   force =    -0.00007764   -0.00002302   -0.00008332
     atom    6 type  1   force =     0.00005987    0.00004591   -0.00009661
     atom    7 type  1   force =    -0.00005875   -0.00005573    0.00008332
     atom    8 type  1   force =     0.00006969    0.00002890    0.00009661

     Total force =     0.000314     Total SCF correction =     0.000002

     Computing stress (Cartesian axis) and pressure

          total   stress  (Ry/bohr**3)                   (kbar)     P=   -0.05
   0.00000046   0.00000078   0.00000002          0.07      0.11      0.00
   0.00000078  -0.00000044  -0.00000003          0.11     -0.06     -0.00
   0.00000002  -0.00000003  -0.00000100          0.00     -0.00     -0.15

     number of scf cycles    =  50
     number of bfgs steps    =  49

     enthalpy old            =    -938.3227677114 Ry
     enthalpy new            =    -938.3227682305 Ry

     CASE: enthalpy_new < enthalpy_old

     new trust radius        =       0.0004829088 bohr
     new conv_thr            =            9.7E-12 Ry

     new unit-cell volume =    946.22585 a.u.^3 (   140.21620 Ang^3 )
     density =      6.66855 g/cm^3

CELL_PARAMETERS (alat=  1.88972599)
  -1.663037035   2.880464809   4.617023617
  -1.623875627   2.812635251  -4.705616461
  -3.962348325  -2.287663070  -0.000000001

ATOMIC_POSITIONS (angstrom)
Ti      -7.606899318   3.261985855  -0.016100502
Ti      -2.812722345   4.109603232  -2.324662249
Ti      -4.749410164   2.887995223  -0.138936977
Ti      -3.917573184   1.447935099  -2.447398800
Nb      -5.905224512   0.315612005  -0.106984565
Nb      -2.774986408   4.043162798   2.201567138
Nb      -3.163294564   0.141775779   0.040539929
Nb      -3.995405736   1.581665148   2.349011890

     NEW-OLD atomic charge density approx. for the potential
     extrapolated charge   99.99335, renormalised to  100.00000

     General routines

     Parallel routines

      39h

   This run was terminated on:   6: 7:58  26Mar2020

   JOB DONE.