     Program PWSCF v.6.3MaX starts on  8Feb2020 at 12:39:34

     R & G space division:  proc/nbgrp/npool/nimage =       4
     Waiting for input...
     Reading input from standard input

     Current dimensions of program PWSCF are:
     Max number of different atomic species (ntypx) = 10
     Max number of k-points (npk) =  40000
     Max angular momentum in pseudopotentials (lmaxx) =  3
     Message from routine iosys:
     minimal I/O required, wf_collect reset to FALSE

     Subspace diagonalization in iterative solution of the eigenvalue problem:
     a serial algorithm will be used

     bravais-lattice index     =            0
     lattice parameter (alat)  =       1.8897  a.u.
     unit-cell volume          =    1077.7903 (a.u.)^3
     number of atoms/cell      =            8
     number of atomic types    =            2
     number of electrons       =        97.00
     number of Kohn-Sham states=           59
     kinetic-energy cutoff     =      40.0000  Ry
     charge density cutoff     =     400.0000  Ry
     convergence threshold     =      1.0E-10
     mixing beta               =       0.6000
     number of iterations used =            8  plain     mixing
     Exchange-correlation      = SLA PW PBE PBE ( 1  4  3  4 0 0)
     nstep                     =           50

     celldm(1)=   1.889726  celldm(2)=   0.000000  celldm(3)=   0.000000
     celldm(4)=   0.000000  celldm(5)=   0.000000  celldm(6)=   0.000000

     crystal axes: (cart. coord. in units of alat)
               a(1) = (   1.522502   2.637051  -4.972461 )
               a(2) = (   1.522502  -2.637051  -4.972461 )
               a(3) = (  -6.090008   0.000000   0.000000 )

     reciprocal axes: (cart. coord. in units 2 pi/alat)
               b(1) = (  0.000000  0.189606 -0.100554 )
               b(2) = (  0.000000 -0.189606 -0.100554 )
               b(3) = ( -0.164203  0.000000 -0.050277 )

     PseudoPot. # 1 for Nb read from file:
     ./Nb.pbe-nsp-van.UPF
     MD5 check sum: 0a22fc7fb0ba19a08ca5db297a5d2854
     Pseudo is Ultrasoft + core correction, Zval = 13.0
     Generated by new atomic code, or converted to UPF format
     Using radial grid of  887 points,  6 beta functions with:
                l(1) =   0
                l(2) =   0
                l(3) =   1
                l(4) =   1
                l(5) =   2
                l(6) =   2
     Q(r) pseudized with  6 coefficients,  rinner =    1.000   1.000   1.000
                                                       1.000   1.000

     PseudoPot. # 2 for Ti read from file:
     ./Ti.pbe-sp-van_ak.UPF
     MD5 check sum: f98fea3e8887528921fefa5636a534ca
     Pseudo is Ultrasoft, Zval = 12.0
     Generated by new atomic code, or converted to UPF format
     Using radial grid of  851 points,  6 beta functions with:
                l(1) =   0
                l(2) =   0
                l(3) =   1
                l(4) =   1
                l(5) =   2
                l(6) =   2
     Q(r) pseudized with  8 coefficients,  rinner =    1.000   1.000   1.000
                                                       1.000   1.000

     atomic species   valence    mass     pseudopotential
        Nb            13.00    92.90638     Nb( 1.00)
        Ti            12.00    47.86700     Ti( 1.00)

     No symmetry found
          (note:  1 additional sym.ops. were found but ignored
           their fractional translations are incommensurate with FFT grid)

   Cartesian axes

     site n.     atom                  positions (alat units)
         1           Ti  tau(   1) = (   0.0000000   0.0000000  -4.9724614  )
         2           Ti  tau(   2) = (  -1.5225006   0.8790162  -2.4862307  )
         3           Ti  tau(   3) = (  -3.0450042   0.0000000  -4.9724614  )
         4           Ti  tau(   4) = (  -4.5675048   0.8790162  -2.4862307  )
         5           Ti  tau(   5) = (  -3.0450042   0.0000000  -9.9449228  )
         6           Ti  tau(   6) = (   1.5225036   0.8790162  -7.4586921  )
         7           Ti  tau(   7) = (   0.0000000   0.0000000  -9.9449228  )
         8           Nb  tau(   8) = (  -1.5225006   0.8790162  -7.4586921  )

     number of k points=   504  Marzari-Vanderbilt smearing, width (Ry)=  0.0200

     Number of k-points >= 100: set verbosity='high' to print them.

     Initial potential from superposition of free atoms

     starting charge   89.99696, renormalised to   97.00000
     Starting wfcs are   83 randomized atomic wfcs

     Self-consistent Calculation

     iteration #  1     ecut=    40.00 Ry     beta= 0.60
     Davidson diagonalization with overlap
     ethr =  1.00E-02,  avg # of iterations =  4.2

     total energy              =    -930.33442236 Ry
     Harris-Foulkes estimate   =    -936.89931767 Ry
     estimated scf accuracy    <       8.72861563 Ry

[...]

     End of self-consistent calculation

     Number of k-points >= 100: set verbosity='high' to print the bands.

     the Fermi energy is    11.9285 ev

!    total energy              =    -934.41005334 Ry
     Harris-Foulkes estimate   =    -934.41005334 Ry
     estimated scf accuracy    <          8.5E-11 Ry

     The total energy is the sum of the following terms:

     one-electron contribution =    -352.79342618 Ry
     hartree contribution      =     200.48387281 Ry
     xc contribution           =    -119.27508995 Ry
     ewald contribution        =    -662.82246169 Ry
     smearing contrib. (-TS)   =      -0.00294833 Ry

     convergence has been achieved in  39 iterations

     Forces acting on atoms (cartesian axes, Ry/au):

     atom    1 type  2   force =    -0.00077902    0.00046982    0.00226494
     atom    2 type  2   force =     0.00042860    0.00065508   -0.00057547
     atom    3 type  2   force =     0.00097440   -0.00051426   -0.00078748
     atom    4 type  2   force =    -0.00042578    0.00065379    0.00057559
     atom    5 type  2   force =     0.00079612    0.00046919   -0.00226170
     atom    6 type  2   force =    -0.00000575   -0.00111395   -0.00000035
     atom    7 type  2   force =    -0.00098955   -0.00051378    0.00078397
     atom    8 type  1   force =     0.00000097   -0.00010588    0.00000050

     Total force =     0.004331     Total SCF correction =     0.000008

     Computing stress (Cartesian axis) and pressure

          total   stress  (Ry/bohr**3)                   (kbar)     P= -134.51
  -0.00087201   0.00000000  -0.00000080       -128.28      0.00     -0.12
   0.00000000  -0.00087685   0.00000000          0.00   -128.99      0.00
  -0.00000080   0.00000000  -0.00099427         -0.12      0.00   -146.26

     BFGS Geometry Optimization

     number of scf cycles    =   1
     number of bfgs steps    =   0

     enthalpy new            =    -934.4100533362 Ry

     new trust radius        =       0.1632077315 bohr
     new conv_thr            =            1.0E-10 Ry

     new unit-cell volume =   1005.55101 a.u.^3 (   149.00728 Ang^3 )
     density =      4.76936 g/cm^3

CELL_PARAMETERS (alat=  1.88972599)
   1.489410509   2.579243601  -4.848892423
   1.489410452  -2.579243801  -4.848892546
  -5.957244106  -0.000000066   0.000121806

ATOMIC_POSITIONS (angstrom)
Ti      -0.000303821   0.000243050  -4.847693261
Ti      -1.489037936   0.860086021  -2.424697504
Ti      -2.978018199  -0.000266320  -4.849207497
Ti      -4.468102261   0.860085319  -2.424042619
Ti      -2.978011016   0.000242578  -9.698830264
Ti       1.489458730   0.859170326  -7.273323661
Ti      -0.000313331  -0.000266151  -9.697319507
Nb      -1.489159842   0.859692048  -7.273262321

     NEW-OLD atomic charge density approx. for the potential
     extrapolated charge   90.53457, renormalised to   97.00000

[...]

     iteration #  1     ecut=    40.00 Ry     beta= 0.60
     Davidson diagonalization with overlap
     c_bands:  1 eigenvalues not converged
     c_bands:  2 eigenvalues not converged
     c_bands:  1 eigenvalues not converged
     c_bands:  1 eigenvalues not converged
     c_bands:  1 eigenvalues not converged
     c_bands:  1 eigenvalues not converged
     c_bands:  1 eigenvalues not converged
     c_bands:  1 eigenvalues not converged
     c_bands:  2 eigenvalues not converged
     c_bands:  1 eigenvalues not converged
     c_bands:  1 eigenvalues not converged
     c_bands:  1 eigenvalues not converged
     c_bands:  1 eigenvalues not converged
     c_bands:  1 eigenvalues not converged
     c_bands:  2 eigenvalues not converged
     c_bands:  1 eigenvalues not converged
     c_bands:  1 eigenvalues not converged
     c_bands:  1 eigenvalues not converged
     c_bands:  1 eigenvalues not converged
     c_bands:  1 eigenvalues not converged
     c_bands:  1 eigenvalues not converged
     c_bands:  1 eigenvalues not converged
     c_bands:  1 eigenvalues not converged
     c_bands:  1 eigenvalues not converged
     ethr =  1.00E-06,  avg # of iterations = 14.9

[...]

     enthalpy old            =    -934.4100533362 Ry
     enthalpy new            =    -934.4624562744 Ry

     CASE: enthalpy_new < enthalpy_old

[...]

     WARNING: bfgs curvature condition failed, Theta= 0.973
     new trust radius        =       0.0067031426 bohr
     new conv_thr            =            1.0E-10 Ry

[...]

     Threshold (ethr) on eigenvalues was too large:
     Diagonalizing with lowered threshold

     Davidson diagonalization with overlap
     ethr =  1.18E-09,  avg # of iterations =  5.1

[...]

     WARNING: bfgs curvature condition failed, Theta= 0.931
     new trust radius        =       0.0006876343 bohr
     new conv_thr            =            2.6E-11 Ry

[...]

     CASE: enthalpy_new < enthalpy_old

[...]

     CASE: enthalpy_new > enthalpy_old

     new trust radius        =       0.0001220872 bohr
     new conv_thr            =            4.5E-12 Ry

[...]

     new trust radius        =       0.0000462779 bohr

     trust_radius < trust_radius_min

     resetting bfgs history

     new conv_thr            =            4.5E-12 Ry

[...]

     NEW-OLD atomic charge density approx. for the potential
     extrapolated charge   97.00027, renormalised to   97.00000

[...]

     number of scf cycles    =  27
     number of bfgs steps    =  24

     enthalpy old            =    -934.4805497882 Ry
     enthalpy new            =    -934.4805497802 Ry

     CASE: enthalpy_new > enthalpy_old

     new trust radius        =       0.0000121627 bohr

     trust_radius < trust_radius_min

     resetting bfgs history

     Message from routine bfgs:
     history already reset at previous step: stopping
     new conv_thr            =            4.5E-12 Ry

     new unit-cell volume =    940.10453 a.u.^3 (   139.30912 Ang^3 )
     density =      5.10139 g/cm^3

[...]

ATOMIC_POSITIONS (angstrom)
Ti       0.001625803  -0.002352375  -4.678675172
Ti      -1.459622663   0.849235833  -2.349907479
Ti      -2.929228921   0.005591280  -4.706650706
Ti      -4.395716016   0.849274525  -2.353407351
Ti      -2.935003911  -0.002318022  -9.424737092
Ti       1.460018340   0.827313695  -7.050418409
Ti      -0.004264356   0.005547476  -9.396790361
Nb      -1.466548523   0.843299831  -7.051690952

     NEW-OLD atomic charge density approx. for the potential

[...]

     Threshold (ethr) on eigenvalues was too large:
     Diagonalizing with lowered threshold

     Davidson diagonalization with overlap
     ethr =  2.35E-13,  avg # of iterations =  2.1

[...]

     bfgs converged in  28 scf cycles and  24 bfgs steps
     (criteria: energy <  1.0E-10 Ry, force <  1.0E-05Ry/Bohr, cell <  1.0E-03kbar)

     End of BFGS Geometry Optimization

     Final enthalpy =    -934.4805497803 Ry
Begin final coordinates
     new unit-cell volume =    940.10453 a.u.^3 (   139.30912 Ang^3 )
     density =      5.10139 g/cm^3

CELL_PARAMETERS (alat=  1.88972599)
   1.461086943   2.531508008  -4.700039677
   1.461178750  -2.531559938  -4.700039097
  -5.853336302   0.000105919  -0.002640727

ATOMIC_POSITIONS (angstrom)
Ti       0.001625803  -0.002352375  -4.678675172
Ti      -1.459622663   0.849235833  -2.349907479
Ti      -2.929228921   0.005591280  -4.706650706
Ti      -4.395716016   0.849274525  -2.353407351
Ti      -2.935003911  -0.002318022  -9.424737092
Ti       1.460018340   0.827313695  -7.050418409
Ti      -0.004264356   0.005547476  -9.396790361
Nb      -1.466548523   0.843299831  -7.051690952
End final coordinates

     A final scf calculation at the relaxed structure.
     The G-vectors are recalculated for the final unit cell
     Results may differ from those at the preceding step.

     bravais-lattice index     =            0
     lattice parameter (alat)  =       1.8897  a.u.
     unit-cell volume          =     940.1045 (a.u.)^3
     number of atoms/cell      =            8
     number of atomic types    =            2
     number of electrons       =        97.00
     number of Kohn-Sham states=           59
     kinetic-energy cutoff     =      40.0000  Ry
     charge density cutoff     =     400.0000  Ry
     convergence threshold     =      4.5E-12
     mixing beta               =       0.6000
     number of iterations used =            8  plain     mixing
     Exchange-correlation      = SLA PW PBE PBE ( 1  4  3  4 0 0)

     celldm(1)=   1.889726  celldm(2)=   0.000000  celldm(3)=   0.000000
     celldm(4)=   0.000000  celldm(5)=   0.000000  celldm(6)=   0.000000

     crystal axes: (cart. coord. in units of alat)
               a(1) = (   1.461087   2.531508  -4.700040 )
               a(2) = (   1.461179  -2.531560  -4.700039 )
               a(3) = (  -5.853336   0.000106  -0.002641 )

     reciprocal axes: (cart. coord. in units 2 pi/alat)
               b(1) = (  0.000052  0.197509 -0.106367 )
               b(2) = (  0.000044 -0.197509 -0.106367 )
               b(3) = ( -0.170819 -0.000003 -0.053104 )

     PseudoPot. # 1 for Nb read from file:
     ./Nb.pbe-nsp-van.UPF
     MD5 check sum: 0a22fc7fb0ba19a08ca5db297a5d2854
     Pseudo is Ultrasoft + core correction, Zval = 13.0
     Generated by new atomic code, or converted to UPF format
     Using radial grid of  887 points,  6 beta functions with:
                l(1) =   0
                l(2) =   0
                l(3) =   1
                l(4) =   1
                l(5) =   2
                l(6) =   2
     Q(r) pseudized with  6 coefficients,  rinner =    1.000   1.000   1.000
                                                       1.000   1.000

     PseudoPot. # 2 for Ti read from file:
     ./Ti.pbe-sp-van_ak.UPF
     MD5 check sum: f98fea3e8887528921fefa5636a534ca
     Pseudo is Ultrasoft, Zval = 12.0
     Generated by new atomic code, or converted to UPF format
     Using radial grid of  851 points,  6 beta functions with:
                l(1) =   0
                l(2) =   0
                l(3) =   1
                l(4) =   1
                l(5) =   2
                l(6) =   2
     Q(r) pseudized with  8 coefficients,  rinner =    1.000   1.000   1.000
                                                       1.000   1.000

     atomic species   valence    mass     pseudopotential
        Nb            13.00    92.90638     Nb( 1.00)
        Ti            12.00    47.86700     Ti( 1.00)

     No symmetry found
          (note:  1 additional sym.ops. were found but ignored
           their fractional translations are incommensurate with FFT grid)

   Cartesian axes

     site n.     atom                  positions (alat units)
         1           Ti  tau(   1) = (   0.0016258  -0.0023524  -4.6786755  )
         2           Ti  tau(   2) = (  -1.4596228   0.8492359  -2.3499077  )
         3           Ti  tau(   3) = (  -2.9292291   0.0055913  -4.7066511  )
         4           Ti  tau(   4) = (  -4.3957164   0.8492746  -2.3534075  )
         5           Ti  tau(   5) = (  -2.9350041  -0.0023180  -9.4247378  )
         6           Ti  tau(   6) = (   1.4600185   0.8273138  -7.0504189  )
         7           Ti  tau(   7) = (  -0.0042644   0.0055475  -9.3967911  )
         8           Nb  tau(   8) = (  -1.4665486   0.8432999  -7.0516915  )

     number of k points=   504  Marzari-Vanderbilt smearing, width (Ry)=  0.0200

     Number of k-points >= 100: set verbosity='high' to print them.

     Initial potential from superposition of free atoms

     starting charge   89.99696, renormalised to   97.00000
     Starting wfcs are   83 randomized atomic wfcs

     Self-consistent Calculation

[...]

     iteration # 16     ecut=    40.00 Ry     beta= 0.60
     Davidson diagonalization with overlap
     c_bands:  1 eigenvalues not converged
     ethr =  2.47E-06,  avg # of iterations =  1.2

[...]

     total energy              =    -934.47210179 Ry
     Harris-Foulkes estimate   =    -934.47210179 Ry
     estimated scf accuracy    <          6.9E-12 Ry

     iteration # 36     ecut=    40.00 Ry     beta= 0.60
     Davidson diagonalization with overlap
     ethr =  1.00E-13,  avg # of iterations =  1.0

     End of self-consistent calculation

     Number of k-points >= 100: set verbosity='high' to print the bands.

     the Fermi energy is    14.0635 ev

!    total energy              =    -934.47210180 Ry
     Harris-Foulkes estimate   =    -934.47210180 Ry
     estimated scf accuracy    <          2.7E-12 Ry

     The total energy is the sum of the following terms:

     one-electron contribution =    -306.60152292 Ry
     hartree contribution      =     185.94006995 Ry
     xc contribution           =    -120.09728123 Ry
     ewald contribution        =    -693.70872656 Ry
     smearing contrib. (-TS)   =      -0.00464102 Ry

     convergence has been achieved in  36 iterations

     Forces acting on atoms (cartesian axes, Ry/au):

     atom    1 type  2   force =    -0.00003493    0.00007469   -0.00002474
     atom    2 type  2   force =    -0.00005504    0.00000047   -0.00001744
     atom    3 type  2   force =     0.00004067   -0.00003641   -0.00000311
     atom    4 type  2   force =     0.00003608   -0.00000036    0.00001013
     atom    5 type  2   force =     0.00002172    0.00007428    0.00002326
     atom    6 type  2   force =     0.00001750   -0.00005218    0.00000365
     atom    7 type  2   force =    -0.00002636   -0.00003692    0.00000939
     atom    8 type  1   force =     0.00000035   -0.00002357   -0.00000114

     Total force =     0.000166     Total SCF correction =     0.000002

     Computing stress (Cartesian axis) and pressure

          total   stress  (Ry/bohr**3)                   (kbar)     P=   -7.50
  -0.00004840  -0.00000002   0.00000028         -7.12     -0.00      0.04
  -0.00000002  -0.00004936  -0.00000000         -0.00     -7.26     -0.00
   0.00000028  -0.00000000  -0.00005519          0.04     -0.00     -8.12

     General routines

     Parallel routines

      46h

   This run was terminated on:   6:26: 9   9Feb2020

   JOB DONE.