     Program PWSCF v.6.3MaX starts on 27Feb2020 at 19: 5:40

     R & G space division:  proc/nbgrp/npool/nimage =       4
     Waiting for input...
     Reading input from standard input

     Current dimensions of program PWSCF are:
     Max number of different atomic species (ntypx) = 10
     Max number of k-points (npk) =  40000
     Max angular momentum in pseudopotentials (lmaxx) =  3
     Message from routine iosys:
     minimal I/O required, wf_collect reset to FALSE

     Subspace diagonalization in iterative solution of the eigenvalue problem:
     a serial algorithm will be used

     bravais-lattice index     =            0
     lattice parameter (alat)  =       1.8897  a.u.
     unit-cell volume          =    1077.7903 (a.u.)^3
     number of atoms/cell      =            8
     number of atomic types    =            2
     number of electrons       =        97.00
     number of Kohn-Sham states=           59
     kinetic-energy cutoff     =      40.0000  Ry
     charge density cutoff     =     400.0000  Ry
     convergence threshold     =      1.0E-10
     mixing beta               =       0.6000
     number of iterations used =            8  plain     mixing
     Exchange-correlation      = SLA PW PBE PBE ( 1  4  3  4 0 0)
     nstep                     =           50

     celldm(1)=   1.889726  celldm(2)=   0.000000  celldm(3)=   0.000000
     celldm(4)=   0.000000  celldm(5)=   0.000000  celldm(6)=   0.000000

     crystal axes: (cart. coord. in units of alat)
               a(1) = (   0.000000   0.000000  -4.972461 )
               a(2) = (  -4.567506   2.637051   0.000000 )
               a(3) = (   3.045004   5.274102   0.000000 )

     reciprocal axes: (cart. coord. in units 2 pi/alat)
               b(1) = (  0.000000  0.000000 -0.201108 )
               b(2) = ( -0.164203  0.094803  0.000000 )
               b(3) = (  0.082102  0.142204  0.000000 )

     PseudoPot. # 1 for Nb read from file:
     ./Nb.pbe-nsp-van.UPF
     MD5 check sum: 0a22fc7fb0ba19a08ca5db297a5d2854
     Pseudo is Ultrasoft + core correction, Zval = 13.0
     Generated by new atomic code, or converted to UPF format
     Using radial grid of  887 points,  6 beta functions with:
                l(1) =   0
                l(2) =   0
                l(3) =   1
                l(4) =   1
                l(5) =   2
                l(6) =   2
     Q(r) pseudized with  6 coefficients,  rinner =    1.000   1.000   1.000
                                                       1.000   1.000

     PseudoPot. # 2 for Ti read from file:
     ./Ti.pbe-sp-van_ak.UPF
     MD5 check sum: f98fea3e8887528921fefa5636a534ca
     Pseudo is Ultrasoft, Zval = 12.0
     Generated by new atomic code, or converted to UPF format
     Using radial grid of  851 points,  6 beta functions with:
                l(1) =   0
                l(2) =   0
                l(3) =   1
                l(4) =   1
                l(5) =   2
                l(6) =   2
     Q(r) pseudized with  8 coefficients,  rinner =    1.000   1.000   1.000
                                                       1.000   1.000

     atomic species   valence    mass     pseudopotential
        Nb            13.00    92.90638     Nb( 1.00)
        Ti            12.00    47.86700     Ti( 1.00)

      4 Sym. Ops. (no inversion) found

   Cartesian axes

     site n.     atom                  positions (alat units)
         1           Ti  tau(   1) = (  -3.0450042   5.2741024  -4.9724614  )
         2           Ti  tau(   2) = (  -3.0450027   3.5160674  -2.4862307  )
         3           Ti  tau(   3) = (   0.0000000   5.2741024  -4.9724614  )
         4           Ti  tau(   4) = (   0.0000015   3.5160674  -2.4862307  )
         5           Ti  tau(   5) = (  -1.5225021   7.9111536  -4.9724614  )
         6           Ti  tau(   6) = (  -1.5225006   6.1531186  -2.4862307  )
         7           Ti  tau(   7) = (  -1.5225021   2.6370512  -4.9724614  )
         8           Nb  tau(   8) = (   1.5225036   6.1531186  -2.4862307  )

     number of k points=   180  Marzari-Vanderbilt smearing, width (Ry)=  0.0200

     Number of k-points >= 100: set verbosity='high' to print them.

     Initial potential from superposition of free atoms

     starting charge   89.99696, renormalised to   97.00000
     Starting wfcs are   83 randomized atomic wfcs

     Self-consistent Calculation

     iteration #  1     ecut=    40.00 Ry     beta= 0.60
     Davidson diagonalization with overlap
     ethr =  1.00E-02,  avg # of iterations =  4.5

     total energy              =    -929.50486283 Ry
     Harris-Foulkes estimate   =    -936.99612057 Ry
     estimated scf accuracy    <       9.86560936 Ry

[...]

     iteration # 18     ecut=    40.00 Ry     beta= 0.60
     Davidson diagonalization with overlap
     c_bands:  1 eigenvalues not converged
     ethr =  5.74E-06,  avg # of iterations =  2.2

[...]

     End of self-consistent calculation

     Number of k-points >= 100: set verbosity='high' to print the bands.

     the Fermi energy is    11.9300 ev

!    total energy              =    -934.41092199 Ry
     Harris-Foulkes estimate   =    -934.41092199 Ry
     estimated scf accuracy    <          7.1E-11 Ry

     The total energy is the sum of the following terms:

     one-electron contribution =    -352.79671569 Ry
     hartree contribution      =     200.48140967 Ry
     xc contribution           =    -119.27442132 Ry
     ewald contribution        =    -662.81797609 Ry
     smearing contrib. (-TS)   =      -0.00321855 Ry

     convergence has been achieved in  34 iterations

     Forces acting on atoms (cartesian axes, Ry/au):

     atom    1 type  2   force =     0.00025029   -0.00014450    0.00000000
     atom    2 type  2   force =     0.00024886    0.00115456    0.00000000
     atom    3 type  2   force =     0.00136260    0.00075219    0.00000000
     atom    4 type  2   force =    -0.00021823    0.00012599    0.00000000
     atom    5 type  2   force =    -0.00145738    0.00084142    0.00000000
     atom    6 type  2   force =    -0.00087545   -0.00079280    0.00000000
     atom    7 type  2   force =     0.00002989   -0.00155614    0.00000000
     atom    8 type  1   force =     0.00065943   -0.00038072    0.00000000

     Total force =     0.003346     Total SCF correction =     0.000005

     Computing stress (Cartesian axis) and pressure

          total   stress  (Ry/bohr**3)                   (kbar)     P= -134.48
  -0.00087472   0.00000181   0.00000000       -128.68      0.27      0.00
   0.00000181  -0.00087263   0.00000000          0.27   -128.37      0.00
   0.00000000   0.00000000  -0.00099517          0.00      0.00   -146.39

     BFGS Geometry Optimization

     number of scf cycles    =   1
     number of bfgs steps    =   0

     enthalpy new            =    -934.4109219853 Ry

     new trust radius        =       0.1633551451 bohr
     new conv_thr            =            1.0E-10 Ry

     new unit-cell volume =   1005.56675 a.u.^3 (   149.00962 Ang^3 )
     density =      4.76929 g/cm^3

CELL_PARAMETERS (alat=  1.88972599)
   0.000000000   0.000000000  -4.848750355
  -4.467504419   2.579315064   0.000000000
   2.978654865   5.159181935   0.000000000

ATOMIC_POSITIONS (angstrom)
Ti      -2.978047439   5.158831238  -4.848750355
Ti      -2.978126307   3.439821490  -2.424375177
Ti       0.000944245   5.159433373  -4.848750355
Ti       0.000047829   3.439427010  -2.424375177
Ti      -1.489603881   7.738932510  -4.848750355
Ti      -1.489380869   6.018404413  -2.424375177
Ti      -1.489073061   2.578647509  -4.848750355
Nb       1.489829530   6.018755705  -2.424375177

     NEW-OLD atomic charge density approx. for the potential
     extrapolated charge   90.53608, renormalised to   97.00000

[...]

     enthalpy old            =    -934.4109219853 Ry
     enthalpy new            =    -934.4632808367 Ry

     CASE: enthalpy_new < enthalpy_old

[...]

     WARNING: bfgs curvature condition failed, Theta= 0.985
     new trust radius        =       0.0070597894 bohr
     new conv_thr            =            1.0E-10 Ry

[...]

     Threshold (ethr) on eigenvalues was too large:
     Diagonalizing with lowered threshold

     Davidson diagonalization with overlap
     ethr =  7.52E-09,  avg # of iterations =  3.0

[...]

     WARNING: bfgs curvature condition failed, Theta= 0.889
     new trust radius        =       0.0046411450 bohr
     new conv_thr            =            1.0E-10 Ry

[...]

     small trust_radius: resetting bfgs history

[...]

     number of scf cycles    =  37
     number of bfgs steps    =  36

     enthalpy old            =    -934.4814246207 Ry
     enthalpy new            =    -934.4814246215 Ry

     CASE: enthalpy_new < enthalpy_old

     WARNING: bfgs curvature condition failed, Theta= 0.963
     Message from routine bfgs:
     history already reset at previous step: stopping
     small trust_radius: resetting bfgs history

     new trust radius        =       0.0000174361 bohr
     new conv_thr            =            1.5E-12 Ry

     new unit-cell volume =    939.43355 a.u.^3 (   139.20969 Ang^3 )
     density =      5.10503 g/cm^3

[...]

ATOMIC_POSITIONS (angstrom)
Ti      -2.811619322   5.048247499  -4.687793154
Ti      -2.904470818   3.410266768  -2.343896577
Ti       0.095107103   5.068244766  -4.687793154
Ti       0.002322697   3.423617187  -2.343896577
Ti      -1.316658970   7.610089872  -4.687793154
Ti      -1.439512258   5.947649614  -2.343896577
Ti      -1.375574252   2.520949750  -4.687793154
Nb       1.459490824   6.007278910  -2.343896577

     NEW-OLD atomic charge density approx. for the potential
     extrapolated charge   96.99993, renormalised to   97.00000

[...]

     Threshold (ethr) on eigenvalues was too large:
     Diagonalizing with lowered threshold

     Davidson diagonalization with overlap
     ethr =  1.27E-12,  avg # of iterations =  4.1

[...]

     bfgs converged in  38 scf cycles and  37 bfgs steps
     (criteria: energy <  1.0E-10 Ry, force <  1.0E-05Ry/Bohr, cell <  1.0E-03kbar)

     End of BFGS Geometry Optimization

     Final enthalpy =    -934.4814246222 Ry
Begin final coordinates
     new unit-cell volume =    939.43355 a.u.^3 (   139.20969 Ang^3 )
     density =      5.10503 g/cm^3

CELL_PARAMETERS (alat=  1.88972599)
   0.000000000   0.000000000  -4.687793154
  -4.335266949   2.502967731   0.000000000
   2.966100590   5.137437295   0.000000000

ATOMIC_POSITIONS (angstrom)
Ti      -2.811619322   5.048247499  -4.687793154
Ti      -2.904470818   3.410266768  -2.343896577
Ti       0.095107103   5.068244766  -4.687793154
Ti       0.002322697   3.423617187  -2.343896577
Ti      -1.316658970   7.610089872  -4.687793154
Ti      -1.439512258   5.947649614  -2.343896577
Ti      -1.375574252   2.520949750  -4.687793154
Nb       1.459490824   6.007278910  -2.343896577
End final coordinates

     A final scf calculation at the relaxed structure.
     The G-vectors are recalculated for the final unit cell
     Results may differ from those at the preceding step.

     bravais-lattice index     =            0
     lattice parameter (alat)  =       1.8897  a.u.
     unit-cell volume          =     939.4335 (a.u.)^3
     number of atoms/cell      =            8
     number of atomic types    =            2
     number of electrons       =        97.00
     number of Kohn-Sham states=           59
     kinetic-energy cutoff     =      40.0000  Ry
     charge density cutoff     =     400.0000  Ry
     convergence threshold     =      1.5E-12
     mixing beta               =       0.6000
     number of iterations used =            8  plain     mixing
     Exchange-correlation      = SLA PW PBE PBE ( 1  4  3  4 0 0)

     celldm(1)=   1.889726  celldm(2)=   0.000000  celldm(3)=   0.000000
     celldm(4)=   0.000000  celldm(5)=   0.000000  celldm(6)=   0.000000

     crystal axes: (cart. coord. in units of alat)
               a(1) = (   0.000000   0.000000  -4.687793 )
               a(2) = (  -4.335267   2.502968   0.000000 )
               a(3) = (   2.966101   5.137437   0.000000 )

     reciprocal axes: (cart. coord. in units 2 pi/alat)
               b(1) = (  0.000000  0.000000 -0.213320 )
               b(2) = ( -0.173000  0.099881  0.000000 )
               b(3) = (  0.084286  0.145987  0.000000 )

     PseudoPot. # 1 for Nb read from file:
     ./Nb.pbe-nsp-van.UPF
     MD5 check sum: 0a22fc7fb0ba19a08ca5db297a5d2854
     Pseudo is Ultrasoft + core correction, Zval = 13.0
     Generated by new atomic code, or converted to UPF format
     Using radial grid of  887 points,  6 beta functions with:
                l(1) =   0
                l(2) =   0
                l(3) =   1
                l(4) =   1
                l(5) =   2
                l(6) =   2
     Q(r) pseudized with  6 coefficients,  rinner =    1.000   1.000   1.000
                                                       1.000   1.000

     PseudoPot. # 2 for Ti read from file:
     ./Ti.pbe-sp-van_ak.UPF
     MD5 check sum: f98fea3e8887528921fefa5636a534ca
     Pseudo is Ultrasoft, Zval = 12.0
     Generated by new atomic code, or converted to UPF format
     Using radial grid of  851 points,  6 beta functions with:
                l(1) =   0
                l(2) =   0
                l(3) =   1
                l(4) =   1
                l(5) =   2
                l(6) =   2
     Q(r) pseudized with  8 coefficients,  rinner =    1.000   1.000   1.000
                                                       1.000   1.000

     atomic species   valence    mass     pseudopotential
        Nb            13.00    92.90638     Nb( 1.00)
        Ti            12.00    47.86700     Ti( 1.00)

      4 Sym. Ops. (no inversion) found

   Cartesian axes

     site n.     atom                  positions (alat units)
         1           Ti  tau(   1) = (  -2.8116195   5.0482479  -4.6877935  )
         2           Ti  tau(   2) = (  -2.9044710   3.4102670  -2.3438968  )
         3           Ti  tau(   3) = (   0.0951071   5.0682452  -4.6877935  )
         4           Ti  tau(   4) = (   0.0023227   3.4236174  -2.3438968  )
         5           Ti  tau(   5) = (  -1.3166591   7.6100905  -4.6877935  )
         6           Ti  tau(   6) = (  -1.4395124   5.9476501  -2.3438968  )
         7           Ti  tau(   7) = (  -1.3755744   2.5209499  -4.6877935  )
         8           Nb  tau(   8) = (   1.4594909   6.0072794  -2.3438968  )

     number of k points=   180  Marzari-Vanderbilt smearing, width (Ry)=  0.0200

     Number of k-points >= 100: set verbosity='high' to print them.

     Initial potential from superposition of free atoms

     starting charge   89.99696, renormalised to   97.00000
     Starting wfcs are   83 randomized atomic wfcs

     Self-consistent Calculation

[...]

     iteration # 15     ecut=    40.00 Ry     beta= 0.60
     Davidson diagonalization with overlap
     c_bands:  1 eigenvalues not converged
     c_bands:  1 eigenvalues not converged
     c_bands:  2 eigenvalues not converged
     c_bands:  1 eigenvalues not converged
     c_bands:  1 eigenvalues not converged
     c_bands:  2 eigenvalues not converged
     c_bands:  1 eigenvalues not converged
     ethr =  1.52E-06,  avg # of iterations =  8.8

[...]

     total energy              =    -934.47305908 Ry
     Harris-Foulkes estimate   =    -934.47305908 Ry
     estimated scf accuracy    <          4.8E-12 Ry

     iteration # 31     ecut=    40.00 Ry     beta= 0.60
     Davidson diagonalization with overlap
     ethr =  1.00E-13,  avg # of iterations =  1.0

     End of self-consistent calculation

     Number of k-points >= 100: set verbosity='high' to print the bands.

     the Fermi energy is    14.0540 ev

!    total energy              =    -934.47305908 Ry
     Harris-Foulkes estimate   =    -934.47305908 Ry
     estimated scf accuracy    <          2.5E-13 Ry

     The total energy is the sum of the following terms:

     one-electron contribution =    -306.40166420 Ry
     hartree contribution      =     185.87998112 Ry
     xc contribution           =    -120.10185485 Ry
     ewald contribution        =    -693.84524809 Ry
     smearing contrib. (-TS)   =      -0.00427305 Ry

     convergence has been achieved in  31 iterations

     Forces acting on atoms (cartesian axes, Ry/au):

     atom    1 type  2   force =     0.00004209   -0.00002430    0.00000000
     atom    2 type  2   force =     0.00002520   -0.00009962    0.00000000
     atom    3 type  2   force =     0.00002482    0.00005752    0.00000000
     atom    4 type  2   force =    -0.00001926    0.00001112    0.00000000
     atom    5 type  2   force =    -0.00004738    0.00002736    0.00000000
     atom    6 type  2   force =     0.00009888    0.00002799    0.00000000
     atom    7 type  2   force =    -0.00003741   -0.00005026    0.00000000
     atom    8 type  1   force =    -0.00008695    0.00005020    0.00000000

     Total force =     0.000212     Total SCF correction =     0.000001

     Computing stress (Cartesian axis) and pressure

          total   stress  (Ry/bohr**3)                   (kbar)     P=   -7.47
  -0.00005079   0.00000423   0.00000000         -7.47      0.62      0.00
   0.00000423  -0.00004591   0.00000000          0.62     -6.75      0.00
   0.00000000   0.00000000  -0.00005567          0.00      0.00     -8.19

     General routines

     Parallel routines

       5h

   This run was terminated on:   2:11:11  28Feb2020

   JOB DONE.