     Program PWSCF v.6.3MaX starts on 22Jan2020 at 18:45:50

     R & G space division:  proc/nbgrp/npool/nimage =      12
     Waiting for input...
     Reading input from standard input

     Current dimensions of program PWSCF are:
     Max number of different atomic species (ntypx) = 10
     Max number of k-points (npk) =  40000
     Max angular momentum in pseudopotentials (lmaxx) =  3
     Message from routine iosys:
     minimal I/O required, wf_collect reset to FALSE

     Subspace diagonalization in iterative solution of the eigenvalue problem:
     a serial algorithm will be used

     bravais-lattice index     =            0
     lattice parameter (alat)  =       1.8897  a.u.
     unit-cell volume          =     586.6735 (a.u.)^3
     number of atoms/cell      =            4
     number of atomic types    =            2
     number of electrons       =        51.00
     number of Kohn-Sham states=           31
     kinetic-energy cutoff     =      50.0000  Ry
     charge density cutoff     =     500.0000  Ry
     convergence threshold     =      1.0E-10
     mixing beta               =       0.6000
     number of iterations used =            8  plain     mixing
     Exchange-correlation      = SLA PW PBE PBE ( 1  4  3  4 0 0)
     nstep                     =           50

     celldm(1)=   1.889726  celldm(2)=   0.000000  celldm(3)=   0.000000
     celldm(4)=   0.000000  celldm(5)=   0.000000  celldm(6)=   0.000000

     crystal axes: (cart. coord. in units of alat)
               a(1) = (   0.000000   3.516063   3.516063 )
               a(2) = (   3.516063   0.000000   3.516063 )
               a(3) = (   3.516063   3.516063   0.000000 )

     reciprocal axes: (cart. coord. in units 2 pi/alat)
               b(1) = ( -0.142205  0.142205  0.142205 )
               b(2) = (  0.142205 -0.142205  0.142205 )
               b(3) = (  0.142205  0.142205 -0.142205 )

     PseudoPot. # 1 for Nb read from file:
     /home/u16/abhishekkt/fp/krishna/calculations/pseudopotentials/Nb.pbe-nsp-van.UPF
     MD5 check sum: c44c1a86bf31974e1e832c2ec821fd5f
     Pseudo is Ultrasoft + core correction, Zval = 13.0
     Generated by new atomic code, or converted to UPF format
     Using radial grid of  887 points,  6 beta functions with:
                l(1) =   0
                l(2) =   0
                l(3) =   1
                l(4) =   1
                l(5) =   2
                l(6) =   2
     Q(r) pseudized with  6 coefficients,  rinner =    1.000   1.000   1.000
                                                       1.000   1.000

     PseudoPot. # 2 for Ti read from file:
     /home/u16/abhishekkt/fp/krishna/calculations/pseudopotentials/Ti.pbe-sp-van_ak.UPF
     MD5 check sum: 84d3ec9e8983e94242673103c800fb48
     Pseudo is Ultrasoft, Zval = 12.0
     Generated by new atomic code, or converted to UPF format
     Using radial grid of  851 points,  6 beta functions with:
                l(1) =   0
                l(2) =   0
                l(3) =   1
                l(4) =   1
                l(5) =   2
                l(6) =   2
     Q(r) pseudized with  8 coefficients,  rinner =    1.000   1.000   1.000
                                                       1.000   1.000

     atomic species   valence    mass     pseudopotential
        Nb            13.00    92.90638     Nb( 1.00)
        Ti            12.00    47.86700     Ti( 1.00)

     48 Sym. Ops., with inversion, found (24 have fractional translation)

   Cartesian axes

     site n.     atom                  positions (alat units)
         1           Ti  tau(   1) = (   1.7580316   1.7580316   1.7580316  )
         2           Nb  tau(   2) = (   3.5160633   3.5160633   3.5160633  )
         3           Nb  tau(   3) = (   5.2740949   5.2740949   5.2740949  )
         4           Nb  tau(   4) = (   7.0321265   7.0321265   7.0321265  )

     number of k points=    84  Marzari-Vanderbilt smearing, width (Ry)=  0.0200
                       cart. coord. in units 2pi/alat
        k(    1) = (   0.0000000   0.0000000   0.0000000), wk =   0.0009103
        k(    2) = (   0.0109388   0.0109388  -0.0109388), wk =   0.0072827
        k(    3) = (   0.0218776   0.0218776  -0.0218776), wk =   0.0072827
        k(    4) = (   0.0328164   0.0328164  -0.0328164), wk =   0.0072827
        k(    5) = (   0.0437552   0.0437552  -0.0437552), wk =   0.0072827
        k(    6) = (   0.0546940   0.0546940  -0.0546940), wk =   0.0072827
        k(    7) = (   0.0656328   0.0656328  -0.0656328), wk =   0.0072827
        k(    8) = (   0.0218776   0.0000000   0.0000000), wk =   0.0054620
        k(    9) = (   0.0328164   0.0109388  -0.0109388), wk =   0.0218480
        k(   10) = (   0.0437552   0.0218776  -0.0218776), wk =   0.0218480
        k(   11) = (   0.0546940   0.0328164  -0.0328164), wk =   0.0218480
        k(   12) = (   0.0656328   0.0437552  -0.0437552), wk =   0.0218480
        k(   13) = (   0.0765717   0.0546940  -0.0546940), wk =   0.0218480
        k(   14) = (  -0.0546940  -0.0765717   0.0765717), wk =   0.0218480
        k(   15) = (  -0.0437552  -0.0656328   0.0656328), wk =   0.0218480
        k(   16) = (  -0.0328164  -0.0546940   0.0546940), wk =   0.0218480
        k(   17) = (  -0.0218776  -0.0437552   0.0437552), wk =   0.0218480
        k(   18) = (  -0.0109388  -0.0328164   0.0328164), wk =   0.0218480
        k(   19) = (   0.0000000  -0.0218776   0.0218776), wk =   0.0109240
        k(   20) = (   0.0437552   0.0000000   0.0000000), wk =   0.0054620
        k(   21) = (   0.0546940   0.0109388  -0.0109388), wk =   0.0218480
        k(   22) = (   0.0656328   0.0218776  -0.0218776), wk =   0.0218480
        k(   23) = (   0.0765717   0.0328164  -0.0328164), wk =   0.0218480
        k(   24) = (   0.0875105   0.0437552  -0.0437552), wk =   0.0218480
        k(   25) = (  -0.0437552  -0.0875105   0.0875105), wk =   0.0218480
        k(   26) = (  -0.0328164  -0.0765717   0.0765717), wk =   0.0218480
        k(   27) = (  -0.0218776  -0.0656328   0.0656328), wk =   0.0218480
        k(   28) = (  -0.0109388  -0.0546940   0.0546940), wk =   0.0218480
        k(   29) = (   0.0000000  -0.0437552   0.0437552), wk =   0.0109240
        k(   30) = (   0.0656328   0.0000000   0.0000000), wk =   0.0054620
        k(   31) = (   0.0765717   0.0109388  -0.0109388), wk =   0.0218480
        k(   32) = (   0.0875105   0.0218776  -0.0218776), wk =   0.0218480
        k(   33) = (   0.0984493   0.0328164  -0.0328164), wk =   0.0218480
        k(   34) = (  -0.0328164  -0.0984493   0.0984493), wk =   0.0218480
        k(   35) = (  -0.0218776  -0.0875105   0.0875105), wk =   0.0218480
        k(   36) = (  -0.0109388  -0.0765717   0.0765717), wk =   0.0218480
        k(   37) = (   0.0000000  -0.0656328   0.0656328), wk =   0.0109240
        k(   38) = (   0.0875105   0.0000000   0.0000000), wk =   0.0054620
        k(   39) = (   0.0984493   0.0109388  -0.0109388), wk =   0.0218480
        k(   40) = (   0.1093881   0.0218776  -0.0218776), wk =   0.0218480
        k(   41) = (  -0.0218776  -0.1093881   0.1093881), wk =   0.0218480
        k(   42) = (  -0.0109388  -0.0984493   0.0984493), wk =   0.0218480
        k(   43) = (   0.0000000  -0.0875105   0.0875105), wk =   0.0109240
        k(   44) = (   0.1093881   0.0000000   0.0000000), wk =   0.0054620
        k(   45) = (   0.1203269   0.0109388  -0.0109388), wk =   0.0218480
        k(   46) = (  -0.0109388  -0.1203269   0.1203269), wk =   0.0218480
        k(   47) = (   0.0000000  -0.1093881   0.1093881), wk =   0.0109240
        k(   48) = (   0.1312657   0.0000000   0.0000000), wk =   0.0054620
        k(   49) = (   0.0000000  -0.1312657   0.1312657), wk =   0.0109240
        k(   50) = (   0.0437552   0.0218776   0.0000000), wk =   0.0218480
        k(   51) = (   0.0546940   0.0328164  -0.0109388), wk =   0.0436959
        k(   52) = (   0.0656328   0.0437552  -0.0218776), wk =   0.0436959
        k(   53) = (   0.0765717   0.0546940  -0.0328164), wk =   0.0436959
        k(   54) = (  -0.0546940  -0.0765717   0.0984493), wk =   0.0436959
        k(   55) = (   0.0656328   0.0218776   0.0000000), wk =   0.0218480
        k(   56) = (   0.0765717   0.0328164  -0.0109388), wk =   0.0436959
        k(   57) = (   0.0875105   0.0437552  -0.0218776), wk =   0.0436959
        k(   58) = (  -0.0437552  -0.0875105   0.1093881), wk =   0.0436959
        k(   59) = (  -0.0328164  -0.0765717   0.0984493), wk =   0.0436959
        k(   60) = (  -0.0218776  -0.0656328   0.0875105), wk =   0.0436959
[...]
        k(   70) = (  -0.0218776  -0.1093881   0.1312657), wk =   0.0436959
        k(   71) = (  -0.0109388  -0.0984493   0.1203269), wk =   0.0436959
        k(   72) = (   0.0000000  -0.0875105   0.1093881), wk =   0.0218480
        k(   73) = (  -0.0109388  -0.1203269   0.1422045), wk =   0.0218480
        k(   74) = (   0.0000000  -0.1093881   0.1312657), wk =   0.0218480
        k(   75) = (   0.0875105   0.0437552   0.0000000), wk =   0.0218480
        k(   76) = (  -0.0437552  -0.0875105   0.1312657), wk =   0.0436959
        k(   77) = (  -0.0328164  -0.0765717   0.1203269), wk =   0.0436959
        k(   78) = (  -0.0328164  -0.0984493   0.1422045), wk =   0.0218480
        k(   79) = (  -0.0218776  -0.0875105   0.1312657), wk =   0.0436959
        k(   80) = (  -0.0109388  -0.0765717   0.1203269), wk =   0.0436959
        k(   81) = (   0.0000000  -0.0656328   0.1093881), wk =   0.0218480
        k(   82) = (  -0.0109388  -0.0984493   0.1422045), wk =   0.0218480
        k(   83) = (   0.0000000  -0.0875105   0.1312657), wk =   0.0218480
        k(   84) = (  -0.0109388  -0.0765717   0.1422045), wk =   0.0218480

     Initial potential from superposition of free atoms

     starting charge   49.99176, renormalised to   51.00000
     Starting wfcs are   49 randomized atomic wfcs

     Self-consistent Calculation

     iteration #  1     ecut=    50.00 Ry     beta= 0.60
     Davidson diagonalization with overlap
     ethr =  1.00E-02,  avg # of iterations =  2.1

     total energy              =    -455.81276633 Ry
     Harris-Foulkes estimate   =    -471.97924905 Ry
     estimated scf accuracy    <      20.39595639 Ry

[...]

     End of self-consistent calculation

          k = 0.0000 0.0000 0.0000 (  3479 PWs)   bands (ev):

   -43.5383 -41.4261 -41.3778 -41.2219 -19.7782 -19.7782 -19.7782 -17.5048
   -17.5048 -17.5048 -17.4647 -17.4647 -17.4647 -17.1279 -17.1279 -17.1279
     7.7884  10.8120  10.8120  12.1389  12.1389  12.1389  12.6380  12.6380
    12.6381  13.8037  13.8037  13.8037  15.6496  15.6496  16.2707

[...]

          k =-0.0547-0.0766 0.0766 (  3507 PWs)   bands (ev):

[...]

     the Fermi energy is    13.2951 ev

!    total energy              =    -470.35423518 Ry
     Harris-Foulkes estimate   =    -470.35423518 Ry
     estimated scf accuracy    <          3.7E-11 Ry

     The total energy is the sum of the following terms:

     one-electron contribution =    -124.17149007 Ry
     hartree contribution      =      79.29950509 Ry
     xc contribution           =     -69.12131062 Ry
     ewald contribution        =    -356.35960064 Ry
     smearing contrib. (-TS)   =      -0.00133893 Ry

     convergence has been achieved in  43 iterations

     Forces acting on atoms (cartesian axes, Ry/au):

     atom    1 type  2   force =     0.00000000   -0.00000000   -0.00000000
     atom    2 type  1   force =     0.00000000    0.00000000    0.00000000
     atom    3 type  1   force =     0.00000000   -0.00000000    0.00000000
     atom    4 type  1   force =     0.00000000   -0.00000000    0.00000000

     Total force =     0.000000     Total SCF correction =     0.000000

     Computing stress (Cartesian axis) and pressure

          total   stress  (Ry/bohr**3)                   (kbar)     P= -210.97
  -0.00143416  -0.00000000   0.00000000       -210.97     -0.00      0.00
  -0.00000000  -0.00143416   0.00000000         -0.00   -210.97      0.00
  -0.00000000  -0.00000000  -0.00143416         -0.00     -0.00   -210.97

     BFGS Geometry Optimization

     number of scf cycles    =   1
     number of bfgs steps    =   0

     enthalpy new            =    -470.3542351752 Ry

     new trust radius        =       0.1736866183 bohr
     new conv_thr            =            1.0E-10 Ry

     new unit-cell volume =    525.80511 a.u.^3 (    77.91628 Ang^3 )
     density =      6.96015 g/cm^3

CELL_PARAMETERS (alat=  1.88972599)
  -0.000000000   3.389997923   3.389997923
   3.389997923  -0.000000000   3.389997923
   3.389997923   3.389997923  -0.000000000

ATOMIC_POSITIONS (angstrom)
Ti       1.694998962   1.694998962   1.694998962
Nb       3.389997923   3.389997923   3.389997923
Nb       5.084996885   5.084996885   5.084996885
Nb       6.779995846   6.779995846   6.779995846

     NEW-OLD atomic charge density approx. for the potential
     extrapolated charge   45.21284, renormalised to   51.00000

[...]

     iteration #  1     ecut=    50.00 Ry     beta= 0.60
     Davidson diagonalization with overlap
     c_bands:  1 eigenvalues not converged
     c_bands:  1 eigenvalues not converged
     c_bands:  1 eigenvalues not converged
     c_bands:  1 eigenvalues not converged
     c_bands:  1 eigenvalues not converged
     c_bands:  1 eigenvalues not converged
     c_bands:  1 eigenvalues not converged
     c_bands:  1 eigenvalues not converged
     ethr =  1.00E-06,  avg # of iterations = 14.2

[...]

     enthalpy old            =    -470.3542351752 Ry
     enthalpy new            =    -470.4239171376 Ry

     CASE: enthalpy_new < enthalpy_old

[...]

     Threshold (ethr) on eigenvalues was too large:
     Diagonalizing with lowered threshold

     Davidson diagonalization with overlap
     ethr =  7.79E-09,  avg # of iterations =  1.0

[...]

     small trust_radius: resetting bfgs history

[...]

     number of scf cycles    =   7
     number of bfgs steps    =   6

     enthalpy old            =    -470.4429324698 Ry
     enthalpy new            =    -470.4429324699 Ry

     CASE: enthalpy_new < enthalpy_old

     WARNING: bfgs curvature condition failed, Theta= 0.209
     Message from routine bfgs:
     history already reset at previous step: stopping
     small trust_radius: resetting bfgs history

     new trust radius        =       0.0000009681 bohr
     new conv_thr            =            1.0E-12 Ry

     new unit-cell volume =    480.89216 a.u.^3 (    71.26087 Ang^3 )
     density =      7.61019 g/cm^3

[...]

ATOMIC_POSITIONS (angstrom)
Ti       1.645294840   1.645294840   1.645294840
Nb       3.290589681   3.290589681   3.290589681
Nb       4.935884521   4.935884521   4.935884521
Nb       6.581179362   6.581179362   6.581179362

     NEW-OLD atomic charge density approx. for the potential
     extrapolated charge   51.00003, renormalised to   51.00000

[...]

     Threshold (ethr) on eigenvalues was too large:
     Diagonalizing with lowered threshold

     Davidson diagonalization with overlap
     ethr =  1.38E-13,  avg # of iterations =  3.2

[...]

     bfgs converged in   8 scf cycles and   7 bfgs steps
     (criteria: energy <  1.0E-10 Ry, force <  1.0E-05Ry/Bohr, cell <  1.0E-03kbar)

     End of BFGS Geometry Optimization

     Final enthalpy =    -470.4429324699 Ry
Begin final coordinates
     new unit-cell volume =    480.89216 a.u.^3 (    71.26087 Ang^3 )
     density =      7.61019 g/cm^3

CELL_PARAMETERS (alat=  1.88972599)
  -0.000000000   3.290589681   3.290589681
   3.290589681  -0.000000000   3.290589681
   3.290589681   3.290589681  -0.000000000

ATOMIC_POSITIONS (angstrom)
Ti       1.645294840   1.645294840   1.645294840
Nb       3.290589681   3.290589681   3.290589681
Nb       4.935884521   4.935884521   4.935884521
Nb       6.581179362   6.581179362   6.581179362
End final coordinates

     A final scf calculation at the relaxed structure.
     The G-vectors are recalculated for the final unit cell
     Results may differ from those at the preceding step.

     bravais-lattice index     =            0
     lattice parameter (alat)  =       1.8897  a.u.
     unit-cell volume          =     480.8922 (a.u.)^3
     number of atoms/cell      =            4
     number of atomic types    =            2
     number of electrons       =        51.00
     number of Kohn-Sham states=           31
     kinetic-energy cutoff     =      50.0000  Ry
     charge density cutoff     =     500.0000  Ry
     convergence threshold     =      1.0E-12
     mixing beta               =       0.6000
     number of iterations used =            8  plain     mixing
     Exchange-correlation      = SLA PW PBE PBE ( 1  4  3  4 0 0)

     celldm(1)=   1.889726  celldm(2)=   0.000000  celldm(3)=   0.000000
     celldm(4)=   0.000000  celldm(5)=   0.000000  celldm(6)=   0.000000

     crystal axes: (cart. coord. in units of alat)
               a(1) = (  -0.000000   3.290590   3.290590 )
               a(2) = (   3.290590  -0.000000   3.290590 )
               a(3) = (   3.290590   3.290590  -0.000000 )

     reciprocal axes: (cart. coord. in units 2 pi/alat)
               b(1) = ( -0.151948  0.151948  0.151948 )
               b(2) = (  0.151948 -0.151948  0.151948 )
               b(3) = (  0.151948  0.151948 -0.151948 )

     PseudoPot. # 1 for Nb read from file:
     /home/u16/abhishekkt/fp/krishna/calculations/pseudopotentials/Nb.pbe-nsp-van.UPF
     MD5 check sum: c44c1a86bf31974e1e832c2ec821fd5f
     Pseudo is Ultrasoft + core correction, Zval = 13.0
     Generated by new atomic code, or converted to UPF format
     Using radial grid of  887 points,  6 beta functions with:
                l(1) =   0
                l(2) =   0
                l(3) =   1
                l(4) =   1
                l(5) =   2
                l(6) =   2
     Q(r) pseudized with  6 coefficients,  rinner =    1.000   1.000   1.000
                                                       1.000   1.000

     PseudoPot. # 2 for Ti read from file:
     /home/u16/abhishekkt/fp/krishna/calculations/pseudopotentials/Ti.pbe-sp-van_ak.UPF
     MD5 check sum: 84d3ec9e8983e94242673103c800fb48
     Pseudo is Ultrasoft, Zval = 12.0
     Generated by new atomic code, or converted to UPF format
     Using radial grid of  851 points,  6 beta functions with:
                l(1) =   0
                l(2) =   0
                l(3) =   1
                l(4) =   1
                l(5) =   2
                l(6) =   2
     Q(r) pseudized with  8 coefficients,  rinner =    1.000   1.000   1.000
                                                       1.000   1.000

     atomic species   valence    mass     pseudopotential
        Nb            13.00    92.90638     Nb( 1.00)
        Ti            12.00    47.86700     Ti( 1.00)

     48 Sym. Ops., with inversion, found (24 have fractional translation)

   Cartesian axes

     site n.     atom                  positions (alat units)
         1           Ti  tau(   1) = (   1.6452950   1.6452950   1.6452950  )
         2           Nb  tau(   2) = (   3.2905899   3.2905899   3.2905899  )
         3           Nb  tau(   3) = (   4.9358849   4.9358849   4.9358849  )
         4           Nb  tau(   4) = (   6.5811799   6.5811799   6.5811799  )

     number of k points=    84  Marzari-Vanderbilt smearing, width (Ry)=  0.0200
                       cart. coord. in units 2pi/alat
        k(    1) = (   0.0000000   0.0000000   0.0000000), wk =   0.0009103
        k(    2) = (   0.0116883   0.0116883  -0.0116883), wk =   0.0072827
        k(    3) = (   0.0233767   0.0233767  -0.0233767), wk =   0.0072827
        k(    4) = (   0.0350650   0.0350650  -0.0350650), wk =   0.0072827
        k(    5) = (   0.0467534   0.0467534  -0.0467534), wk =   0.0072827
        k(    6) = (   0.0584417   0.0584417  -0.0584417), wk =   0.0072827
        k(    7) = (   0.0701301   0.0701301  -0.0701301), wk =   0.0072827
        k(    8) = (   0.0233767   0.0000000   0.0000000), wk =   0.0054620
        k(    9) = (   0.0350650   0.0116883  -0.0116883), wk =   0.0218480
        k(   10) = (   0.0467534   0.0233767  -0.0233767), wk =   0.0218480
        k(   11) = (   0.0584417   0.0350650  -0.0350650), wk =   0.0218480
        k(   12) = (   0.0701301   0.0467534  -0.0467534), wk =   0.0218480
        k(   13) = (   0.0818184   0.0584417  -0.0584417), wk =   0.0218480
        k(   14) = (  -0.0584417  -0.0818184   0.0818184), wk =   0.0218480
        k(   15) = (  -0.0467534  -0.0701301   0.0701301), wk =   0.0218480
        k(   16) = (  -0.0350650  -0.0584417   0.0584417), wk =   0.0218480
        k(   17) = (  -0.0233767  -0.0467534   0.0467534), wk =   0.0218480
        k(   18) = (  -0.0116883  -0.0350650   0.0350650), wk =   0.0218480
        k(   19) = (   0.0000000  -0.0233767   0.0233767), wk =   0.0109240
        k(   20) = (   0.0467534   0.0000000   0.0000000), wk =   0.0054620
        k(   21) = (   0.0584417   0.0116883  -0.0116883), wk =   0.0218480
        k(   22) = (   0.0701301   0.0233767  -0.0233767), wk =   0.0218480
        k(   23) = (   0.0818184   0.0350650  -0.0350650), wk =   0.0218480
        k(   24) = (   0.0935067   0.0467534  -0.0467534), wk =   0.0218480
        k(   25) = (  -0.0467534  -0.0935067   0.0935067), wk =   0.0218480
        k(   26) = (  -0.0350650  -0.0818184   0.0818184), wk =   0.0218480
        k(   27) = (  -0.0233767  -0.0701301   0.0701301), wk =   0.0218480
        k(   28) = (  -0.0116883  -0.0584417   0.0584417), wk =   0.0218480
        k(   29) = (   0.0000000  -0.0467534   0.0467534), wk =   0.0109240
        k(   30) = (   0.0701301   0.0000000   0.0000000), wk =   0.0054620
        k(   31) = (   0.0818184   0.0116883  -0.0116883), wk =   0.0218480
        k(   32) = (   0.0935067   0.0233767  -0.0233767), wk =   0.0218480
        k(   33) = (   0.1051951   0.0350650  -0.0350650), wk =   0.0218480
        k(   34) = (  -0.0350650  -0.1051951   0.1051951), wk =   0.0218480
        k(   35) = (  -0.0233767  -0.0935067   0.0935067), wk =   0.0218480
        k(   36) = (  -0.0116883  -0.0818184   0.0818184), wk =   0.0218480
        k(   37) = (   0.0000000  -0.0701301   0.0701301), wk =   0.0109240
        k(   38) = (   0.0935067   0.0000000   0.0000000), wk =   0.0054620
        k(   39) = (   0.1051951   0.0116883  -0.0116883), wk =   0.0218480
        k(   40) = (   0.1168834   0.0233767  -0.0233767), wk =   0.0218480
        k(   41) = (  -0.0233767  -0.1168834   0.1168834), wk =   0.0218480
        k(   42) = (  -0.0116883  -0.1051951   0.1051951), wk =   0.0218480
        k(   43) = (   0.0000000  -0.0935067   0.0935067), wk =   0.0109240
        k(   44) = (   0.1168834   0.0000000   0.0000000), wk =   0.0054620
        k(   45) = (   0.1285718   0.0116883  -0.0116883), wk =   0.0218480
        k(   46) = (  -0.0116883  -0.1285718   0.1285718), wk =   0.0218480
        k(   47) = (   0.0000000  -0.1168834   0.1168834), wk =   0.0109240
        k(   48) = (   0.1402601   0.0000000   0.0000000), wk =   0.0054620
        k(   49) = (   0.0000000  -0.1402601   0.1402601), wk =   0.0109240
        k(   50) = (   0.0467534   0.0233767  -0.0000000), wk =   0.0218480
        k(   51) = (   0.0584417   0.0350650  -0.0116883), wk =   0.0436959
        k(   52) = (   0.0701301   0.0467534  -0.0233767), wk =   0.0436959
        k(   53) = (   0.0818184   0.0584417  -0.0350650), wk =   0.0436959
        k(   54) = (  -0.0584417  -0.0818184   0.1051951), wk =   0.0436959
        k(   55) = (   0.0701301   0.0233767  -0.0000000), wk =   0.0218480
        k(   56) = (   0.0818184   0.0350650  -0.0116883), wk =   0.0436959
        k(   57) = (   0.0935067   0.0467534  -0.0233767), wk =   0.0436959
        k(   58) = (  -0.0467534  -0.0935067   0.1168834), wk =   0.0436959
        k(   59) = (  -0.0350650  -0.0818184   0.1051951), wk =   0.0436959
        k(   60) = (  -0.0233767  -0.0701301   0.0935067), wk =   0.0436959
[...]
        k(   70) = (  -0.0233767  -0.1168834   0.1402601), wk =   0.0436959
        k(   71) = (  -0.0116883  -0.1051951   0.1285718), wk =   0.0436959
        k(   72) = (   0.0000000  -0.0935067   0.1168834), wk =   0.0218480
        k(   73) = (  -0.0116883  -0.1285718   0.1519484), wk =   0.0218480
        k(   74) = (   0.0000000  -0.1168834   0.1402601), wk =   0.0218480
        k(   75) = (   0.0935067   0.0467534  -0.0000000), wk =   0.0218480
        k(   76) = (  -0.0467534  -0.0935067   0.1402601), wk =   0.0436959
        k(   77) = (  -0.0350650  -0.0818184   0.1285718), wk =   0.0436959
        k(   78) = (  -0.0350650  -0.1051951   0.1519484), wk =   0.0218480
        k(   79) = (  -0.0233767  -0.0935067   0.1402601), wk =   0.0436959
        k(   80) = (  -0.0116883  -0.0818184   0.1285718), wk =   0.0436959
        k(   81) = (   0.0000000  -0.0701301   0.1168834), wk =   0.0218480
        k(   82) = (  -0.0116883  -0.1051951   0.1519484), wk =   0.0218480
        k(   83) = (   0.0000000  -0.0935067   0.1402601), wk =   0.0218480
        k(   84) = (  -0.0116883  -0.0818184   0.1519484), wk =   0.0218480

     Initial potential from superposition of free atoms

     starting charge   49.99176, renormalised to   51.00000
     Starting wfcs are   49 randomized atomic wfcs

     Self-consistent Calculation

     iteration #  1     ecut=    50.00 Ry     beta= 0.60
     Davidson diagonalization with overlap
     c_bands:  1 eigenvalues not converged
     ethr =  1.00E-06,  avg # of iterations = 11.2

[...]

     total energy              =    -470.44243246 Ry
     Harris-Foulkes estimate   =    -470.44243246 Ry
     estimated scf accuracy    <          1.1E-12 Ry

     iteration # 37     ecut=    50.00 Ry     beta= 0.60
     Davidson diagonalization with overlap
     ethr =  1.00E-13,  avg # of iterations =  1.6

     End of self-consistent calculation

[...]

          k = 0.0000-0.0935 0.1403 (  2869 PWs)   bands (ev):

[...]

          k =-0.0117-0.0818 0.1519 (  2878 PWs)   bands (ev):

   -39.4575 -37.3547 -37.3497 -37.2504 -15.7991 -15.7844 -15.7782 -13.9892
   -13.7712 -13.7239 -13.5551 -13.3335 -13.3288 -13.0833 -13.0496 -12.9847
    13.7012  13.8975  13.9248  14.2401  16.0011  16.0926  16.2588  16.3974
    16.5280  16.6936  16.7162  17.1134  18.8711  19.0538  19.1984

     the Fermi energy is    16.8511 ev

!    total energy              =    -470.44243246 Ry
     Harris-Foulkes estimate   =    -470.44243246 Ry
     estimated scf accuracy    <          3.3E-13 Ry

     The total energy is the sum of the following terms:

     one-electron contribution =     -88.94300050 Ry
     hartree contribution      =      69.14379051 Ry
     xc contribution           =     -69.86445321 Ry
     ewald contribution        =    -380.77758943 Ry
     smearing contrib. (-TS)   =      -0.00117982 Ry

     convergence has been achieved in  37 iterations

     Forces acting on atoms (cartesian axes, Ry/au):

     atom    1 type  2   force =    -0.00000000    0.00000000    0.00000000
     atom    2 type  1   force =    -0.00000000    0.00000000   -0.00000000
     atom    3 type  1   force =     0.00000000   -0.00000000   -0.00000000
     atom    4 type  1   force =    -0.00000000    0.00000000    0.00000000

     Total force =     0.000000     Total SCF correction =     0.000000

     Computing stress (Cartesian axis) and pressure

          total   stress  (Ry/bohr**3)                   (kbar)     P=   -1.34
  -0.00000914   0.00000000   0.00000000         -1.34      0.00      0.00
   0.00000000  -0.00000914   0.00000000          0.00     -1.34      0.00
   0.00000000   0.00000000  -0.00000914          0.00      0.00     -1.34

     General routines

     Parallel routines

   This run was terminated on:  19:37:24  22Jan2020

   JOB DONE.