     Program PWSCF v.6.3MaX starts on  2Feb2020 at 14:43:19

     R & G space division:  proc/nbgrp/npool/nimage =       4
     Waiting for input...
     Reading input from standard input

     Current dimensions of program PWSCF are:
     Max number of different atomic species (ntypx) = 10
     Max number of k-points (npk) =  40000
     Max angular momentum in pseudopotentials (lmaxx) =  3
     Message from routine iosys:
     minimal I/O required, wf_collect reset to FALSE

     Subspace diagonalization in iterative solution of the eigenvalue problem:
     a serial algorithm will be used

     bravais-lattice index     =            0
     lattice parameter (alat)  =       1.8897  a.u.
     unit-cell volume          =     733.3418 (a.u.)^3
     number of atoms/cell      =            5
     number of atomic types    =            2
     number of electrons       =        64.00
     number of Kohn-Sham states=           38
     kinetic-energy cutoff     =      50.0000  Ry
     charge density cutoff     =     500.0000  Ry
     convergence threshold     =      1.0E-10
     mixing beta               =       0.6000
     number of iterations used =            8  plain     mixing
     Exchange-correlation      = SLA PW PBE PBE ( 1  4  3  4 0 0)
     nstep                     =           50

     celldm(1)=   1.889726  celldm(2)=   0.000000  celldm(3)=   0.000000
     celldm(4)=   0.000000  celldm(5)=   0.000000  celldm(6)=   0.000000

     crystal axes: (cart. coord. in units of alat)
               a(1) = (  -1.758031   1.758031   5.274095 )
               a(2) = (  -1.758031   5.274095   1.758031 )
               a(3) = (  -5.274095   1.758031   1.758031 )

     reciprocal axes: (cart. coord. in units 2 pi/alat)
               b(1) = (  0.056882 -0.056882  0.227527 )
               b(2) = (  0.056882  0.227527 -0.056882 )
               b(3) = ( -0.227527 -0.056882 -0.056882 )

     PseudoPot. # 1 for Nb read from file:
     ./Nb.pbe-nsp-van.UPF
     MD5 check sum: 0a22fc7fb0ba19a08ca5db297a5d2854
     Pseudo is Ultrasoft + core correction, Zval = 13.0
     Generated by new atomic code, or converted to UPF format
     Using radial grid of  887 points,  6 beta functions with:
                l(1) =   0
                l(2) =   0
                l(3) =   1
                l(4) =   1
                l(5) =   2
                l(6) =   2
     Q(r) pseudized with  6 coefficients,  rinner =    1.000   1.000   1.000
                                                       1.000   1.000

     PseudoPot. # 2 for Ti read from file:
     ./Ti.pbe-sp-van_ak.UPF
     MD5 check sum: f98fea3e8887528921fefa5636a534ca
     Pseudo is Ultrasoft, Zval = 12.0
     Generated by new atomic code, or converted to UPF format
     Using radial grid of  851 points,  6 beta functions with:
                l(1) =   0
                l(2) =   0
                l(3) =   1
                l(4) =   1
                l(5) =   2
                l(6) =   2
     Q(r) pseudized with  8 coefficients,  rinner =    1.000   1.000   1.000
                                                       1.000   1.000

     atomic species   valence    mass     pseudopotential
        Nb            13.00    92.90638     Nb( 1.00)
        Ti            12.00    47.86700     Ti( 1.00)

     12 Sym. Ops., with inversion, found ( 6 have fractional translation)

   Cartesian axes

     site n.     atom                  positions (alat units)
         1           Ti  tau(   1) = (  -3.5160633   3.5160633   3.5160633  )
         2           Nb  tau(   2) = (  -5.2740949   5.2740949   5.2740949  )
         3           Nb  tau(   3) = (  -7.0321265   7.0321265   7.0321265  )
         4           Nb  tau(   4) = (  -8.7901582   8.7901582   8.7901582  )
         5           Nb  tau(   5) = (  -1.7580316   1.7580316   1.7580316  )

     number of k points=   189  Marzari-Vanderbilt smearing, width (Ry)=  0.0200

     Number of k-points >= 100: set verbosity='high' to print them.

     Initial potential from superposition of free atoms

     starting charge   62.98902, renormalised to   64.00000
     Starting wfcs are   62 randomized atomic wfcs

     Self-consistent Calculation

     iteration #  1     ecut=    50.00 Ry     beta= 0.60
     Davidson diagonalization with overlap
     ethr =  1.00E-02,  avg # of iterations =  2.0

     total energy              =    -570.19597134 Ry
     Harris-Foulkes estimate   =    -590.28250983 Ry
     estimated scf accuracy    <      25.22361439 Ry

[...]

     End of self-consistent calculation

     Number of k-points >= 100: set verbosity='high' to print the bands.

     the Fermi energy is    13.5042 ev

!    total energy              =    -588.26710479 Ry
     Harris-Foulkes estimate   =    -588.26710479 Ry
     estimated scf accuracy    <          5.0E-12 Ry

     The total energy is the sum of the following terms:

     one-electron contribution =    -148.57704314 Ry
     hartree contribution      =      96.57735661 Ry
     xc contribution           =     -87.37155675 Ry
     ewald contribution        =    -448.89582251 Ry
     smearing contrib. (-TS)   =      -0.00003900 Ry

     convergence has been achieved in  36 iterations

     Forces acting on atoms (cartesian axes, Ry/au):

     atom    1 type  2   force =     0.00000000    0.00000000    0.00000000
     atom    2 type  1   force =    -0.00987112    0.00987112    0.00987112
     atom    3 type  1   force =    -0.00310864    0.00310864    0.00310864
     atom    4 type  1   force =     0.00310864   -0.00310864   -0.00310864
     atom    5 type  1   force =     0.00987112   -0.00987112   -0.00987112

     Total force =     0.025350     Total SCF correction =     0.000001

     Computing stress (Cartesian axis) and pressure

          total   stress  (Ry/bohr**3)                   (kbar)     P= -213.46
  -0.00145107   0.00001434   0.00001434       -213.46      2.11      2.11
   0.00001434  -0.00145107  -0.00001434          2.11   -213.46     -2.11
   0.00001434  -0.00001434  -0.00145107          2.11     -2.11   -213.46

     BFGS Geometry Optimization

     number of scf cycles    =   1
     number of bfgs steps    =   0

     enthalpy new            =    -588.2671047886 Ry

     new trust radius        =       0.1964966866 bohr
     new conv_thr            =            1.0E-10 Ry

     new unit-cell volume =    656.39180 a.u.^3 (    97.26723 Ang^3 )
     density =      7.16155 g/cm^3

CELL_PARAMETERS (alat=  1.88972599)
  -1.691735143   1.691735143   5.081506691
  -1.691735143   5.081506691   1.691735143
  -5.081506691   1.691735143   1.691735143

ATOMIC_POSITIONS (angstrom)
Ti      -3.385990791   3.385990791   3.385990791
Nb      -5.084016517   5.084016517   5.084016517
Nb      -6.773565748   6.773565748   6.773565748
Nb      -8.463392810   8.463392810   8.463392810
Nb      -1.687965064   1.687965064   1.687965064

     NEW-OLD atomic charge density approx. for the potential
     extrapolated charge   56.61568, renormalised to   64.00000

[...]

     iteration #  1     ecut=    50.00 Ry     beta= 0.60
     Davidson diagonalization with overlap
     c_bands:  1 eigenvalues not converged
     c_bands:  1 eigenvalues not converged
     c_bands:  2 eigenvalues not converged
     c_bands:  1 eigenvalues not converged
     c_bands:  1 eigenvalues not converged
     c_bands:  1 eigenvalues not converged
     c_bands:  1 eigenvalues not converged
     c_bands:  1 eigenvalues not converged
     c_bands:  1 eigenvalues not converged
     c_bands:  1 eigenvalues not converged
     c_bands:  1 eigenvalues not converged
     c_bands:  1 eigenvalues not converged
     c_bands:  1 eigenvalues not converged
     c_bands:  1 eigenvalues not converged
     c_bands:  1 eigenvalues not converged
     ethr =  1.00E-06,  avg # of iterations = 14.7

[...]

     enthalpy old            =    -588.2671047886 Ry
     enthalpy new            =    -588.3558426191 Ry

     CASE: enthalpy_new < enthalpy_old

[...]

     WARNING: bfgs curvature condition failed, Theta= 0.957
     new trust radius        =       0.0148424747 bohr
     new conv_thr            =            1.0E-10 Ry

[...]

     iteration #  1     ecut=    50.00 Ry     beta= 0.60
     Davidson diagonalization with overlap
     c_bands:  1 eigenvalues not converged
     c_bands:  1 eigenvalues not converged
     ethr =  1.00E-06,  avg # of iterations =  6.7

[...]

     Threshold (ethr) on eigenvalues was too large:
     Diagonalizing with lowered threshold

     Davidson diagonalization with overlap
     ethr =  5.26E-08,  avg # of iterations =  2.1

[...]

     small trust_radius: resetting bfgs history

[...]

     number of scf cycles    =  18
     number of bfgs steps    =  17

     enthalpy old            =    -588.3797728643 Ry
     enthalpy new            =    -588.3797728683 Ry

     CASE: enthalpy_new < enthalpy_old

     Message from routine bfgs:
     history already reset at previous step: stopping
     small trust_radius: resetting bfgs history

     new trust radius        =       0.0000121155 bohr
     new conv_thr            =            1.0E-12 Ry

     new unit-cell volume =    603.93701 a.u.^3 (    89.49423 Ang^3 )
     density =      7.78356 g/cm^3

[...]

ATOMIC_POSITIONS (angstrom)
Ti      -3.225802831   3.225802831   3.225802831
Nb      -4.873024816   4.873024816   4.873024816
Nb      -6.456956719   6.456956719   6.456956719
Nb      -8.059156022   8.059156022   8.059156022
Nb      -1.578580846   1.578580846   1.578580846

     NEW-OLD atomic charge density approx. for the potential
     extrapolated charge   64.00025, renormalised to   64.00000

[...]

     Threshold (ethr) on eigenvalues was too large:
     Diagonalizing with lowered threshold

     Davidson diagonalization with overlap
     ethr =  4.92E-12,  avg # of iterations =  2.0

[...]

     bfgs converged in  19 scf cycles and  18 bfgs steps
     (criteria: energy <  1.0E-10 Ry, force <  1.0E-05Ry/Bohr, cell <  1.0E-03kbar)

     End of BFGS Geometry Optimization

     Final enthalpy =    -588.3797728687 Ry
Begin final coordinates
     new unit-cell volume =    603.93701 a.u.^3 (    89.49423 Ang^3 )
     density =      7.78356 g/cm^3

CELL_PARAMETERS (alat=  1.88972599)
  -1.577748710   1.577748710   4.909009658
  -1.577748710   4.909009658   1.577748710
  -4.909009658   1.577748710   1.577748710

ATOMIC_POSITIONS (angstrom)
Ti      -3.225802831   3.225802831   3.225802831
Nb      -4.873024816   4.873024816   4.873024816
Nb      -6.456956719   6.456956719   6.456956719
Nb      -8.059156022   8.059156022   8.059156022
Nb      -1.578580846   1.578580846   1.578580846
End final coordinates

     A final scf calculation at the relaxed structure.
     The G-vectors are recalculated for the final unit cell
     Results may differ from those at the preceding step.

     bravais-lattice index     =            0
     lattice parameter (alat)  =       1.8897  a.u.
     unit-cell volume          =     603.9370 (a.u.)^3
     number of atoms/cell      =            5
     number of atomic types    =            2
     number of electrons       =        64.00
     number of Kohn-Sham states=           38
     kinetic-energy cutoff     =      50.0000  Ry
     charge density cutoff     =     500.0000  Ry
     convergence threshold     =      1.0E-12
     mixing beta               =       0.6000
     number of iterations used =            8  plain     mixing
     Exchange-correlation      = SLA PW PBE PBE ( 1  4  3  4 0 0)

     celldm(1)=   1.889726  celldm(2)=   0.000000  celldm(3)=   0.000000
     celldm(4)=   0.000000  celldm(5)=   0.000000  celldm(6)=   0.000000

     crystal axes: (cart. coord. in units of alat)
               a(1) = (  -1.577749   1.577749   4.909010 )
               a(2) = (  -1.577749   4.909010   1.577749 )
               a(3) = (  -4.909010   1.577749   1.577749 )

     reciprocal axes: (cart. coord. in units 2 pi/alat)
               b(1) = (  0.058729 -0.058729  0.241458 )
               b(2) = (  0.058729  0.241458 -0.058729 )
               b(3) = ( -0.241458 -0.058729 -0.058729 )

     PseudoPot. # 1 for Nb read from file:
     ./Nb.pbe-nsp-van.UPF
     MD5 check sum: 0a22fc7fb0ba19a08ca5db297a5d2854
     Pseudo is Ultrasoft + core correction, Zval = 13.0
     Generated by new atomic code, or converted to UPF format
     Using radial grid of  887 points,  6 beta functions with:
                l(1) =   0
                l(2) =   0
                l(3) =   1
                l(4) =   1
                l(5) =   2
                l(6) =   2
     Q(r) pseudized with  6 coefficients,  rinner =    1.000   1.000   1.000
                                                       1.000   1.000

     PseudoPot. # 2 for Ti read from file:
     ./Ti.pbe-sp-van_ak.UPF
     MD5 check sum: f98fea3e8887528921fefa5636a534ca
     Pseudo is Ultrasoft, Zval = 12.0
     Generated by new atomic code, or converted to UPF format
     Using radial grid of  851 points,  6 beta functions with:
                l(1) =   0
                l(2) =   0
                l(3) =   1
                l(4) =   1
                l(5) =   2
                l(6) =   2
     Q(r) pseudized with  8 coefficients,  rinner =    1.000   1.000   1.000
                                                       1.000   1.000

     atomic species   valence    mass     pseudopotential
        Nb            13.00    92.90638     Nb( 1.00)
        Ti            12.00    47.86700     Ti( 1.00)

     12 Sym. Ops., with inversion, found ( 6 have fractional translation)

   Cartesian axes

     site n.     atom                  positions (alat units)
         1           Ti  tau(   1) = (  -3.2258031   3.2258031   3.2258031  )
         2           Nb  tau(   2) = (  -4.8730252   4.8730252   4.8730252  )
         3           Nb  tau(   3) = (  -6.4569572   6.4569572   6.4569572  )
         4           Nb  tau(   4) = (  -8.0591566   8.0591566   8.0591566  )
         5           Nb  tau(   5) = (  -1.5785810   1.5785810   1.5785810  )

     number of k points=   189  Marzari-Vanderbilt smearing, width (Ry)=  0.0200

     Number of k-points >= 100: set verbosity='high' to print them.

     Initial potential from superposition of free atoms

     starting charge   62.98902, renormalised to   64.00000
     Starting wfcs are   62 randomized atomic wfcs

     Self-consistent Calculation

[...]

     total energy              =    -588.37914113 Ry
     Harris-Foulkes estimate   =    -588.37914113 Ry
     estimated scf accuracy    <          1.2E-11 Ry

     iteration # 35     ecut=    50.00 Ry     beta= 0.60
     Davidson diagonalization with overlap
     ethr =  1.00E-13,  avg # of iterations =  1.0

     End of self-consistent calculation

     Number of k-points >= 100: set verbosity='high' to print the bands.

     the Fermi energy is    17.0141 ev

!    total energy              =    -588.37914113 Ry
     Harris-Foulkes estimate   =    -588.37914113 Ry
     estimated scf accuracy    <          7.9E-13 Ry

     The total energy is the sum of the following terms:

     one-electron contribution =    -105.75037237 Ry
     hartree contribution      =      84.38895851 Ry
     xc contribution           =     -88.30535418 Ry
     ewald contribution        =    -478.71294082 Ry
     smearing contrib. (-TS)   =       0.00056773 Ry

     convergence has been achieved in  35 iterations

     Forces acting on atoms (cartesian axes, Ry/au):

     atom    1 type  2   force =    -0.00000000   -0.00000000    0.00000000
     atom    2 type  1   force =    -0.00000003    0.00000003    0.00000003
     atom    3 type  1   force =    -0.00000765    0.00000765    0.00000765
     atom    4 type  1   force =     0.00000765   -0.00000765   -0.00000765
     atom    5 type  1   force =     0.00000003   -0.00000003   -0.00000003

     Total force =     0.000019     Total SCF correction =     0.000001

     Computing stress (Cartesian axis) and pressure

          total   stress  (Ry/bohr**3)                   (kbar)     P=   -1.40
  -0.00000952   0.00000005   0.00000005         -1.40      0.01      0.01
   0.00000005  -0.00000952  -0.00000005          0.01     -1.40     -0.01
   0.00000005  -0.00000005  -0.00000952          0.01     -0.01     -1.40

     General routines

     Parallel routines

      40h

   This run was terminated on:  17:23:55   2Feb2020

   JOB DONE.