     Program PWSCF v.6.3MaX starts on 11Feb2020 at  8:21: 0

     R & G space division:  proc/nbgrp/npool/nimage =       4
     Waiting for input...
     Reading input from standard input

     Current dimensions of program PWSCF are:
     Max number of different atomic species (ntypx) = 10
     Max number of k-points (npk) =  40000
     Max angular momentum in pseudopotentials (lmaxx) =  3
     Message from routine iosys:
     minimal I/O required, wf_collect reset to FALSE

     Subspace diagonalization in iterative solution of the eigenvalue problem:
     a serial algorithm will be used

     bravais-lattice index     =            0
     lattice parameter (alat)  =       1.8897  a.u.
     unit-cell volume          =     808.3427 (a.u.)^3
     number of atoms/cell      =            6
     number of atomic types    =            2
     number of electrons       =        74.00
     number of Kohn-Sham states=           44
     kinetic-energy cutoff     =      40.0000  Ry
     charge density cutoff     =     400.0000  Ry
     convergence threshold     =      1.0E-10
     mixing beta               =       0.6000
     number of iterations used =            8  plain     mixing
     Exchange-correlation      = SLA PW PBE PBE ( 1  4  3  4 0 0)
     nstep                     =           50

     celldm(1)=   1.889726  celldm(2)=   0.000000  celldm(3)=   0.000000
     celldm(4)=   0.000000  celldm(5)=   0.000000  celldm(6)=   0.000000

     crystal axes: (cart. coord. in units of alat)
               a(1) = (  -1.522502  -2.637051   0.000000 )
               a(2) = (   3.045004   0.000000   0.000000 )
               a(3) = (   0.000000   0.000000  14.917383 )

     reciprocal axes: (cart. coord. in units 2 pi/alat)
               b(1) = (  0.000000 -0.379211  0.000000 )
               b(2) = (  0.328407 -0.189606  0.000000 )
               b(3) = (  0.000000  0.000000  0.067036 )

     PseudoPot. # 1 for Nb read from file:
     ./Nb.pbe-nsp-van.UPF
     MD5 check sum: 0a22fc7fb0ba19a08ca5db297a5d2854
     Pseudo is Ultrasoft + core correction, Zval = 13.0
     Generated by new atomic code, or converted to UPF format
     Using radial grid of  887 points,  6 beta functions with:
                l(1) =   0
                l(2) =   0
                l(3) =   1
                l(4) =   1
                l(5) =   2
                l(6) =   2
     Q(r) pseudized with  6 coefficients,  rinner =    1.000   1.000   1.000
                                                       1.000   1.000

     PseudoPot. # 2 for Ti read from file:
     ./Ti.pbe-sp-van_ak.UPF
     MD5 check sum: f98fea3e8887528921fefa5636a534ca
     Pseudo is Ultrasoft, Zval = 12.0
     Generated by new atomic code, or converted to UPF format
     Using radial grid of  851 points,  6 beta functions with:
                l(1) =   0
                l(2) =   0
                l(3) =   1
                l(4) =   1
                l(5) =   2
                l(6) =   2
     Q(r) pseudized with  8 coefficients,  rinner =    1.000   1.000   1.000
                                                       1.000   1.000

     atomic species   valence    mass     pseudopotential
        Nb            13.00    92.90638     Nb( 1.00)
        Ti            12.00    47.86700     Ti( 1.00)

     12 Sym. Ops. (no inversion) found ( 6 have fractional translation)

   Cartesian axes

     site n.     atom                  positions (alat units)
         1           Ti  tau(   1) = (   1.5225021  -2.6370512   4.9724614  )
         2           Ti  tau(   2) = (   0.0000015  -1.7580350   2.4862307  )
         3           Ti  tau(   3) = (   1.5225021  -2.6370512   9.9449228  )
         4           Nb  tau(   4) = (   0.0000015  -1.7580350   7.4586921  )
         5           Ti  tau(   5) = (   1.5225021  -2.6370512  14.9173841  )
         6           Nb  tau(   6) = (   0.0000015  -1.7580350  12.4311534  )

     number of k points=   120  Marzari-Vanderbilt smearing, width (Ry)=  0.0200

     Number of k-points >= 100: set verbosity='high' to print them.

     Initial potential from superposition of free atoms

     starting charge   69.99436, renormalised to   74.00000
     Starting wfcs are   66 randomized atomic wfcs

     Self-consistent Calculation

     iteration #  1     ecut=    40.00 Ry     beta= 0.60
     Davidson diagonalization with overlap
     ethr =  1.00E-02,  avg # of iterations =  4.8

     total energy              =    -415.55647716 Ry
     Harris-Foulkes estimate   =    -728.02703486 Ry
     estimated scf accuracy    <     375.84437251 Ry

     iteration #  2     ecut=    40.00 Ry     beta= 0.60
     Davidson diagonalization with overlap
     c_bands:  2 eigenvalues not converged
     c_bands:  1 eigenvalues not converged
     c_bands:  1 eigenvalues not converged
     c_bands:  1 eigenvalues not converged
     c_bands:  1 eigenvalues not converged
     c_bands:  3 eigenvalues not converged
     c_bands:  1 eigenvalues not converged
     c_bands:  1 eigenvalues not converged
     c_bands:  2 eigenvalues not converged
     c_bands:  3 eigenvalues not converged
     ethr =  1.00E-02,  avg # of iterations = 17.5

[...]

     End of self-consistent calculation

     Number of k-points >= 100: set verbosity='high' to print the bands.

     the Fermi energy is    12.9775 ev

!    total energy              =    -702.38757476 Ry
     Harris-Foulkes estimate   =    -702.38757476 Ry
     estimated scf accuracy    <          9.3E-11 Ry

     The total energy is the sum of the following terms:

     one-electron contribution =    -232.41780211 Ry
     hartree contribution      =     138.27325254 Ry
     xc contribution           =     -94.33760350 Ry
     ewald contribution        =    -513.90173154 Ry
     smearing contrib. (-TS)   =      -0.00369013 Ry

     convergence has been achieved in  41 iterations

     Forces acting on atoms (cartesian axes, Ry/au):

     atom    1 type  2   force =     0.00000000    0.00000000   -0.00641613
     atom    2 type  2   force =     0.00000000    0.00000000    0.00000000
     atom    3 type  2   force =     0.00000000    0.00000000    0.00000000
     atom    4 type  1   force =     0.00000000    0.00000000    0.00068859
     atom    5 type  2   force =     0.00000000    0.00000000    0.00641613
     atom    6 type  1   force =     0.00000000    0.00000000   -0.00068859

     Total force =     0.009126     Total SCF correction =     0.000026

     Computing stress (Cartesian axis) and pressure

          total   stress  (Ry/bohr**3)                   (kbar)     P= -128.96
  -0.00089110  -0.00000000   0.00000000       -131.08     -0.00      0.00
   0.00000000  -0.00089110   0.00000000          0.00   -131.08      0.00
   0.00000000   0.00000000  -0.00084779          0.00      0.00   -124.71

     BFGS Geometry Optimization

     number of scf cycles    =   1
     number of bfgs steps    =   0

     enthalpy new            =    -702.3875747592 Ry

     new trust radius        =       0.1266753247 bohr
     new conv_thr            =            1.0E-10 Ry

     new unit-cell volume =    756.35067 a.u.^3 (   112.07961 Ang^3 )
     density =      5.58968 g/cm^3

CELL_PARAMETERS (alat=  1.88972599)
  -1.488584633  -2.578304401  -0.000000000
   2.977169265   0.000000000  -0.000000000
   0.000000000   0.000000000  14.601214277

ATOMIC_POSITIONS (angstrom)
Ti       1.488584633  -2.578304401   4.863748119
Ti       0.000001489  -1.718870460   2.433535713
Ti       1.488584633  -2.578304401   9.734142851
Nb       0.000001489  -1.718870460   7.300963801
Ti       1.488584633  -2.578304401  14.604537584
Nb       0.000001489  -1.718870460  12.167321902

     NEW-OLD atomic charge density approx. for the potential
     extrapolated charge   69.18854, renormalised to   74.00000

[...]

     enthalpy old            =    -702.3875747592 Ry
     enthalpy new            =    -702.4224117950 Ry

     CASE: enthalpy_new < enthalpy_old

[...]

     Total force =     0.000031     Total SCF correction =     0.000007
     SCF correction compared to forces is large: reduce conv_thr to get better values

[...]

     Threshold (ethr) on eigenvalues was too large:
     Diagonalizing with lowered threshold

     Davidson diagonalization with overlap
     ethr =  4.10E-08,  avg # of iterations =  1.2

[...]

     small trust_radius: resetting bfgs history

[...]

     number of scf cycles    =  14
     number of bfgs steps    =  13

     enthalpy old            =    -702.4332267829 Ry
     enthalpy new            =    -702.4332267869 Ry

     CASE: enthalpy_new < enthalpy_old

     Message from routine bfgs:
     history already reset at previous step: stopping
     small trust_radius: resetting bfgs history

     new trust radius        =       0.0000272582 bohr
     new conv_thr            =            1.9E-12 Ry

     new unit-cell volume =    716.06045 a.u.^3 (   106.10921 Ang^3 )
     density =      5.90419 g/cm^3

[...]

ATOMIC_POSITIONS (angstrom)
Ti       1.456459342  -2.522661770   4.735281738
Ti       0.000001457  -1.681775354   2.406658901
Ti       1.456459342  -2.522661770   9.626635605
Nb       0.000001457  -1.681775354   7.188768529
Ti       1.456459342  -2.522661770  14.517989473
Nb       0.000001457  -1.681775354  12.064502682

     NEW-OLD atomic charge density approx. for the potential
     extrapolated charge   74.00010, renormalised to   74.00000

[...]

     Threshold (ethr) on eigenvalues was too large:
     Diagonalizing with lowered threshold

     Davidson diagonalization with overlap
     ethr =  2.46E-10,  avg # of iterations =  1.0

[...]

     Total force =     0.000027     Total SCF correction =     0.000004
     SCF correction compared to forces is large: reduce conv_thr to get better values

[...]

     bfgs converged in  15 scf cycles and  14 bfgs steps
     (criteria: energy <  1.0E-10 Ry, force <  1.0E-05Ry/Bohr, cell <  1.0E-03kbar)

     End of BFGS Geometry Optimization

     Final enthalpy =    -702.4332267890 Ry
Begin final coordinates
     new unit-cell volume =    716.06045 a.u.^3 (   106.10921 Ang^3 )
     density =      5.90419 g/cm^3

CELL_PARAMETERS (alat=  1.88972599)
  -1.456459342  -2.522661770  -0.000000000
   2.912918685   0.000000000   0.000000000
   0.000000000  -0.000000000  14.439953408

ATOMIC_POSITIONS (angstrom)
Ti       1.456459342  -2.522661770   4.735281738
Ti       0.000001457  -1.681775354   2.406658901
Ti       1.456459342  -2.522661770   9.626635605
Nb       0.000001457  -1.681775354   7.188768529
Ti       1.456459342  -2.522661770  14.517989473
Nb       0.000001457  -1.681775354  12.064502682
End final coordinates

     A final scf calculation at the relaxed structure.
     The G-vectors are recalculated for the final unit cell
     Results may differ from those at the preceding step.

     bravais-lattice index     =            0
     lattice parameter (alat)  =       1.8897  a.u.
     unit-cell volume          =     716.0604 (a.u.)^3
     number of atoms/cell      =            6
     number of atomic types    =            2
     number of electrons       =        74.00
     number of Kohn-Sham states=           44
     kinetic-energy cutoff     =      40.0000  Ry
     charge density cutoff     =     400.0000  Ry
     convergence threshold     =      1.9E-12
     mixing beta               =       0.6000
     number of iterations used =            8  plain     mixing
     Exchange-correlation      = SLA PW PBE PBE ( 1  4  3  4 0 0)

     celldm(1)=   1.889726  celldm(2)=   0.000000  celldm(3)=   0.000000
     celldm(4)=   0.000000  celldm(5)=   0.000000  celldm(6)=   0.000000

     crystal axes: (cart. coord. in units of alat)
               a(1) = (  -1.456459  -2.522662  -0.000000 )
               a(2) = (   2.912919   0.000000   0.000000 )
               a(3) = (   0.000000  -0.000000  14.439953 )

     reciprocal axes: (cart. coord. in units 2 pi/alat)
               b(1) = (  0.000000 -0.396407 -0.000000 )
               b(2) = (  0.343298 -0.198203 -0.000000 )
               b(3) = ( -0.000000 -0.000000  0.069252 )

     PseudoPot. # 1 for Nb read from file:
     ./Nb.pbe-nsp-van.UPF
     MD5 check sum: 0a22fc7fb0ba19a08ca5db297a5d2854
     Pseudo is Ultrasoft + core correction, Zval = 13.0
     Generated by new atomic code, or converted to UPF format
     Using radial grid of  887 points,  6 beta functions with:
                l(1) =   0
                l(2) =   0
                l(3) =   1
                l(4) =   1
                l(5) =   2
                l(6) =   2
     Q(r) pseudized with  6 coefficients,  rinner =    1.000   1.000   1.000
                                                       1.000   1.000

     PseudoPot. # 2 for Ti read from file:
     ./Ti.pbe-sp-van_ak.UPF
     MD5 check sum: f98fea3e8887528921fefa5636a534ca
     Pseudo is Ultrasoft, Zval = 12.0
     Generated by new atomic code, or converted to UPF format
     Using radial grid of  851 points,  6 beta functions with:
                l(1) =   0
                l(2) =   0
                l(3) =   1
                l(4) =   1
                l(5) =   2
                l(6) =   2
     Q(r) pseudized with  8 coefficients,  rinner =    1.000   1.000   1.000
                                                       1.000   1.000

     atomic species   valence    mass     pseudopotential
        Nb            13.00    92.90638     Nb( 1.00)
        Ti            12.00    47.86700     Ti( 1.00)

     12 Sym. Ops. (no inversion) found ( 6 have fractional translation)

   Cartesian axes

     site n.     atom                  positions (alat units)
         1           Ti  tau(   1) = (   1.4564595  -2.5226620   4.7352821  )
         2           Ti  tau(   2) = (   0.0000015  -1.6817755   2.4066591  )
         3           Ti  tau(   3) = (   1.4564595  -2.5226620   9.6266363  )
         4           Nb  tau(   4) = (   0.0000015  -1.6817755   7.1887691  )
         5           Ti  tau(   5) = (   1.4564595  -2.5226620  14.5179906  )
         6           Nb  tau(   6) = (   0.0000015  -1.6817755  12.0645036  )

     number of k points=   120  Marzari-Vanderbilt smearing, width (Ry)=  0.0200

     Number of k-points >= 100: set verbosity='high' to print them.

     Initial potential from superposition of free atoms

     starting charge   69.99436, renormalised to   74.00000
     Starting wfcs are   66 randomized atomic wfcs

     Self-consistent Calculation

[...]

     iteration # 29     ecut=    40.00 Ry     beta= 0.60
     Davidson diagonalization with overlap
     c_bands:  1 eigenvalues not converged
     ethr =  2.46E-08,  avg # of iterations =  4.7

[...]

     total energy              =    -702.42843712 Ry
     Harris-Foulkes estimate   =    -702.42843712 Ry
     estimated scf accuracy    <          5.0E-12 Ry

     iteration # 39     ecut=    40.00 Ry     beta= 0.60
     Davidson diagonalization with overlap
     ethr =  1.00E-13,  avg # of iterations =  1.0

     End of self-consistent calculation

     Number of k-points >= 100: set verbosity='high' to print the bands.

     the Fermi energy is    14.9709 ev

!    total energy              =    -702.42843712 Ry
     Harris-Foulkes estimate   =    -702.42843712 Ry
     estimated scf accuracy    <          1.5E-12 Ry

     The total energy is the sum of the following terms:

     one-electron contribution =    -200.05054411 Ry
     hartree contribution      =     128.21800377 Ry
     xc contribution           =     -94.93475506 Ry
     ewald contribution        =    -535.65757285 Ry
     smearing contrib. (-TS)   =      -0.00356886 Ry

     convergence has been achieved in  39 iterations

     Forces acting on atoms (cartesian axes, Ry/au):

     atom    1 type  2   force =    -0.00000000    0.00000000    0.00004639
     atom    2 type  2   force =     0.00000000   -0.00000000   -0.00000000
     atom    3 type  2   force =     0.00000000   -0.00000000   -0.00000000
     atom    4 type  1   force =    -0.00000000   -0.00000000    0.00001527
     atom    5 type  2   force =     0.00000000   -0.00000000   -0.00004639
     atom    6 type  1   force =    -0.00000000    0.00000000   -0.00001527

     Total force =     0.000069     Total SCF correction =     0.000003

     Computing stress (Cartesian axis) and pressure

          total   stress  (Ry/bohr**3)                   (kbar)     P=   -4.78
  -0.00003345   0.00000000   0.00000000         -4.92      0.00      0.00
   0.00000000  -0.00003345  -0.00000000          0.00     -4.92     -0.00
   0.00000000  -0.00000000  -0.00003061          0.00     -0.00     -4.50

     General routines

     Parallel routines

      36h

   This run was terminated on:   9:57: 8  11Feb2020

   JOB DONE.