     Program PWSCF v.6.3MaX starts on 26Jan2020 at 13: 5:38

     R & G space division:  proc/nbgrp/npool/nimage =       4
     Waiting for input...
     Reading input from standard input

     Current dimensions of program PWSCF are:
     Max number of different atomic species (ntypx) = 10
     Max number of k-points (npk) =  40000
     Max angular momentum in pseudopotentials (lmaxx) =  3
     Message from routine iosys:
     minimal I/O required, wf_collect reset to FALSE

     Subspace diagonalization in iterative solution of the eigenvalue problem:
     a serial algorithm will be used

     bravais-lattice index     =            0
     lattice parameter (alat)  =       1.8897  a.u.
     unit-cell volume          =     808.3427 (a.u.)^3
     number of atoms/cell      =            6
     number of atomic types    =            2
     number of electrons       =        73.00
     number of Kohn-Sham states=           44
     kinetic-energy cutoff     =      40.0000  Ry
     charge density cutoff     =     400.0000  Ry
     convergence threshold     =      1.0E-10
     mixing beta               =       0.6000
     number of iterations used =            8  plain     mixing
     Exchange-correlation      = SLA PW PBE PBE ( 1  4  3  4 0 0)
     nstep                     =           50

     celldm(1)=   1.889726  celldm(2)=   0.000000  celldm(3)=   0.000000
     celldm(4)=   0.000000  celldm(5)=   0.000000  celldm(6)=   0.000000

     crystal axes: (cart. coord. in units of alat)
               a(1) = (   3.045004   0.000000   4.972461 )
               a(2) = (  -1.522502   2.637051   4.972461 )
               a(3) = (  -1.522502  -2.637051   4.972461 )

     reciprocal axes: (cart. coord. in units 2 pi/alat)
               b(1) = (  0.218938  0.000000  0.067036 )
               b(2) = ( -0.109469  0.189606  0.067036 )
               b(3) = ( -0.109469 -0.189606  0.067036 )

     PseudoPot. # 1 for Nb read from file:
     ./Nb.pbe-nsp-van.UPF
     MD5 check sum: 0a22fc7fb0ba19a08ca5db297a5d2854
     Pseudo is Ultrasoft + core correction, Zval = 13.0
     Generated by new atomic code, or converted to UPF format
     Using radial grid of  887 points,  6 beta functions with:
                l(1) =   0
                l(2) =   0
                l(3) =   1
                l(4) =   1
                l(5) =   2
                l(6) =   2
     Q(r) pseudized with  6 coefficients,  rinner =    1.000   1.000   1.000
                                                       1.000   1.000

     PseudoPot. # 2 for Ti read from file:
     ./Ti.pbe-sp-van_ak.UPF
     MD5 check sum: f98fea3e8887528921fefa5636a534ca
     Pseudo is Ultrasoft, Zval = 12.0
     Generated by new atomic code, or converted to UPF format
     Using radial grid of  851 points,  6 beta functions with:
                l(1) =   0
                l(2) =   0
                l(3) =   1
                l(4) =   1
                l(5) =   2
                l(6) =   2
     Q(r) pseudized with  8 coefficients,  rinner =    1.000   1.000   1.000
                                                       1.000   1.000

     atomic species   valence    mass     pseudopotential
        Nb            13.00    92.90638     Nb( 1.00)
        Ti            12.00    47.86700     Ti( 1.00)

      6 Sym. Ops. (no inversion) found ( 4 have fractional translation)

   Cartesian axes

     site n.     atom                  positions (alat units)
         1           Ti  tau(   1) = (   0.0000000   0.0000000   9.9449228  )
         2           Ti  tau(   2) = (   0.0000015  -1.7580350   7.4586921  )
         3           Ti  tau(   3) = (   0.0000000   0.0000000  14.9173841  )
         4           Ti  tau(   4) = (   1.5225036   0.8790162   7.4586921  )
         5           Ti  tau(   5) = (   0.0000000   0.0000000   4.9724614  )
         6           Nb  tau(   6) = (  -1.5225006   0.8790162   7.4586921  )

     number of k points=   189  Marzari-Vanderbilt smearing, width (Ry)=  0.0200

     Number of k-points >= 100: set verbosity='high' to print them.

     Initial potential from superposition of free atoms

     starting charge   67.99705, renormalised to   73.00000
     Starting wfcs are   63 randomized atomic wfcs

     Self-consistent Calculation

     iteration #  1     ecut=    40.00 Ry     beta= 0.60
     Davidson diagonalization with overlap
     ethr =  1.00E-02,  avg # of iterations =  4.4

     total energy              =    -698.42906469 Ry
     Harris-Foulkes estimate   =    -702.89007195 Ry
     estimated scf accuracy    <       5.95457983 Ry

[...]

     iteration # 23     ecut=    40.00 Ry     beta= 0.60
     Davidson diagonalization with overlap
     c_bands:  1 eigenvalues not converged
     c_bands:  1 eigenvalues not converged
     ethr =  2.97E-06,  avg # of iterations = 10.2

[...]

     End of self-consistent calculation

     Number of k-points >= 100: set verbosity='high' to print the bands.

     the Fermi energy is    12.1439 ev

!    total energy              =    -701.12333318 Ry
     Harris-Foulkes estimate   =    -701.12333318 Ry
     estimated scf accuracy    <          8.0E-11 Ry

     The total energy is the sum of the following terms:

     one-electron contribution =    -257.90804783 Ry
     hartree contribution      =     147.81630282 Ry
     xc contribution           =     -90.43074612 Ry
     ewald contribution        =    -500.59760597 Ry
     smearing contrib. (-TS)   =      -0.00323609 Ry

     convergence has been achieved in  41 iterations

     Forces acting on atoms (cartesian axes, Ry/au):

     atom    1 type  2   force =     0.00000000    0.00201565    0.00000000
     atom    2 type  2   force =     0.00000000   -0.00000000   -0.00161355
     atom    3 type  2   force =     0.00174560   -0.00100782    0.00000000
     atom    4 type  2   force =     0.00000000    0.00000000    0.00161355
     atom    5 type  2   force =    -0.00174560   -0.00100782    0.00000000
     atom    6 type  1   force =     0.00000000    0.00000000    0.00000000

     Total force =     0.004171     Total SCF correction =     0.000002

     Computing stress (Cartesian axis) and pressure

          total   stress  (Ry/bohr**3)                   (kbar)     P= -134.17
  -0.00087956   0.00000000  -0.00000000       -129.39      0.00     -0.00
  -0.00000000  -0.00087956   0.00000000         -0.00   -129.39      0.00
   0.00000000  -0.00000000  -0.00097713          0.00     -0.00   -143.74

     BFGS Geometry Optimization

     number of scf cycles    =   1
     number of bfgs steps    =   0

     enthalpy new            =    -701.1233331806 Ry

     new trust radius        =       0.1389062816 bohr
     new conv_thr            =            1.0E-10 Ry

     new unit-cell volume =    754.29652 a.u.^3 (   111.77521 Ang^3 )
     density =      4.93580 g/cm^3

CELL_PARAMETERS (alat=  1.88972599)
   2.978047088  -0.000000000   4.850991985
  -1.489023544   2.579064617   4.850991985
  -1.489023544  -2.579064617   4.850991985

ATOMIC_POSITIONS (angstrom)
Ti       0.000000000   0.001043180   9.701983971
Ti       0.000001490  -1.719377271   7.275654983
Ti       0.000903421  -0.000521590  14.552975956
Ti       1.489025034   0.859687346   7.277320974
Ti      -0.000903421  -0.000521590   4.850991985
Nb      -1.489022055   0.859687346   7.276487978

     NEW-OLD atomic charge density approx. for the potential
     extrapolated charge   68.12793, renormalised to   73.00000

[...]

     enthalpy old            =    -701.1233331806 Ry
     enthalpy new            =    -701.1621511060 Ry

     CASE: enthalpy_new < enthalpy_old

[...]

     Threshold (ethr) on eigenvalues was too large:
     Diagonalizing with lowered threshold

     Davidson diagonalization with overlap
     ethr =  3.90E-08,  avg # of iterations =  3.6

[...]

     small trust_radius: resetting bfgs history

[...]

     number of scf cycles    =  17
     number of bfgs steps    =  16

     enthalpy old            =    -701.1746442283 Ry
     enthalpy new            =    -701.1746442289 Ry

     CASE: enthalpy_new < enthalpy_old

     Message from routine bfgs:
     history already reset at previous step: stopping
     small trust_radius: resetting bfgs history

     new trust radius        =       0.0000090583 bohr
     new conv_thr            =            1.0E-12 Ry

     new unit-cell volume =    707.10994 a.u.^3 (   104.78288 Ang^3 )
     density =      5.26517 g/cm^3

[...]

ATOMIC_POSITIONS (angstrom)
Ti       0.000000000  -0.006936171   9.437981349
Ti       0.000001462  -1.687851832   7.063868996
Ti      -0.006006901   0.003468085  14.156972023
Ti       1.461723186   0.843924650   7.093103028
Ti       0.006006901   0.003468085   4.718990674
Nb      -1.461720262   0.843924650   7.078486012

     NEW-OLD atomic charge density approx. for the potential
     extrapolated charge   73.00004, renormalised to   73.00000

[...]

     Threshold (ethr) on eigenvalues was too large:
     Diagonalizing with lowered threshold

     Davidson diagonalization with overlap
     ethr =  9.43E-13,  avg # of iterations =  4.2

[...]

     bfgs converged in  18 scf cycles and  17 bfgs steps
     (criteria: energy <  1.0E-10 Ry, force <  1.0E-05Ry/Bohr, cell <  1.0E-03kbar)

     End of BFGS Geometry Optimization

     Final enthalpy =    -701.1746442292 Ry
Begin final coordinates
     new unit-cell volume =    707.10994 a.u.^3 (   104.78288 Ang^3 )
     density =      5.26517 g/cm^3

CELL_PARAMETERS (alat=  1.88972599)
   2.923443449  -0.000000000   4.718990674
  -1.461721724   2.531776482   4.718990674
  -1.461721724  -2.531776482   4.718990674

ATOMIC_POSITIONS (angstrom)
Ti       0.000000000  -0.006936171   9.437981349
Ti       0.000001462  -1.687851832   7.063868996
Ti      -0.006006901   0.003468085  14.156972023
Ti       1.461723186   0.843924650   7.093103028
Ti       0.006006901   0.003468085   4.718990674
Nb      -1.461720262   0.843924650   7.078486012
End final coordinates

     A final scf calculation at the relaxed structure.
     The G-vectors are recalculated for the final unit cell
     Results may differ from those at the preceding step.

     bravais-lattice index     =            0
     lattice parameter (alat)  =       1.8897  a.u.
     unit-cell volume          =     707.1099 (a.u.)^3
     number of atoms/cell      =            6
     number of atomic types    =            2
     number of electrons       =        73.00
     number of Kohn-Sham states=           44
     kinetic-energy cutoff     =      40.0000  Ry
     charge density cutoff     =     400.0000  Ry
     convergence threshold     =      1.0E-12
     mixing beta               =       0.6000
     number of iterations used =            8  plain     mixing
     Exchange-correlation      = SLA PW PBE PBE ( 1  4  3  4 0 0)

     celldm(1)=   1.889726  celldm(2)=   0.000000  celldm(3)=   0.000000
     celldm(4)=   0.000000  celldm(5)=   0.000000  celldm(6)=   0.000000

     crystal axes: (cart. coord. in units of alat)
               a(1) = (   2.923443  -0.000000   4.718991 )
               a(2) = (  -1.461722   2.531776   4.718991 )
               a(3) = (  -1.461722  -2.531776   4.718991 )

     reciprocal axes: (cart. coord. in units 2 pi/alat)
               b(1) = (  0.228042  0.000000  0.070637 )
               b(2) = ( -0.114021  0.197490  0.070637 )
               b(3) = ( -0.114021 -0.197490  0.070637 )

     PseudoPot. # 1 for Nb read from file:
     ./Nb.pbe-nsp-van.UPF
     MD5 check sum: 0a22fc7fb0ba19a08ca5db297a5d2854
     Pseudo is Ultrasoft + core correction, Zval = 13.0
     Generated by new atomic code, or converted to UPF format
     Using radial grid of  887 points,  6 beta functions with:
                l(1) =   0
                l(2) =   0
                l(3) =   1
                l(4) =   1
                l(5) =   2
                l(6) =   2
     Q(r) pseudized with  6 coefficients,  rinner =    1.000   1.000   1.000
                                                       1.000   1.000

     PseudoPot. # 2 for Ti read from file:
     ./Ti.pbe-sp-van_ak.UPF
     MD5 check sum: f98fea3e8887528921fefa5636a534ca
     Pseudo is Ultrasoft, Zval = 12.0
     Generated by new atomic code, or converted to UPF format
     Using radial grid of  851 points,  6 beta functions with:
                l(1) =   0
                l(2) =   0
                l(3) =   1
                l(4) =   1
                l(5) =   2
                l(6) =   2
     Q(r) pseudized with  8 coefficients,  rinner =    1.000   1.000   1.000
                                                       1.000   1.000

     atomic species   valence    mass     pseudopotential
        Nb            13.00    92.90638     Nb( 1.00)
        Ti            12.00    47.86700     Ti( 1.00)

      6 Sym. Ops. (no inversion) found ( 4 have fractional translation)

   Cartesian axes

     site n.     atom                  positions (alat units)
         1           Ti  tau(   1) = (   0.0000000  -0.0069362   9.4379821  )
         2           Ti  tau(   2) = (   0.0000015  -1.6878520   7.0638695  )
         3           Ti  tau(   3) = (  -0.0060069   0.0034681  14.1569731  )
         4           Ti  tau(   4) = (   1.4617233   0.8439247   7.0931036  )
         5           Ti  tau(   5) = (   0.0060069   0.0034681   4.7189910  )
         6           Nb  tau(   6) = (  -1.4617204   0.8439247   7.0784866  )

     number of k points=   189  Marzari-Vanderbilt smearing, width (Ry)=  0.0200

     Number of k-points >= 100: set verbosity='high' to print them.

     Initial potential from superposition of free atoms

     starting charge   67.99705, renormalised to   73.00000
     Starting wfcs are   63 randomized atomic wfcs

     Self-consistent Calculation

[...]

     iteration # 21     ecut=    40.00 Ry     beta= 0.60
     Davidson diagonalization with overlap
     c_bands:  1 eigenvalues not converged
     ethr =  1.12E-05,  avg # of iterations =  6.3

[...]

     total energy              =    -701.16858755 Ry
     Harris-Foulkes estimate   =    -701.16858755 Ry
     estimated scf accuracy    <          1.0E-12 Ry

     iteration # 45     ecut=    40.00 Ry     beta= 0.60
     Davidson diagonalization with overlap
     ethr =  1.00E-13,  avg # of iterations =  1.0

     End of self-consistent calculation

     Number of k-points >= 100: set verbosity='high' to print the bands.

     the Fermi energy is    14.2564 ev

!    total energy              =    -701.16858755 Ry
     Harris-Foulkes estimate   =    -701.16858755 Ry
     estimated scf accuracy    <          1.8E-13 Ry

     The total energy is the sum of the following terms:

     one-electron contribution =    -223.87329037 Ry
     hartree contribution      =     137.17555963 Ry
     xc contribution           =     -91.04615317 Ry
     ewald contribution        =    -523.42095536 Ry
     smearing contrib. (-TS)   =      -0.00374827 Ry

     convergence has been achieved in  45 iterations

     Forces acting on atoms (cartesian axes, Ry/au):

     atom    1 type  2   force =     0.00000000    0.00005999   -0.00000000
     atom    2 type  2   force =     0.00000000    0.00000000   -0.00002655
     atom    3 type  2   force =     0.00005195   -0.00002999   -0.00000000
     atom    4 type  2   force =     0.00000000    0.00000000    0.00002655
     atom    5 type  2   force =    -0.00005195   -0.00002999    0.00000000
     atom    6 type  1   force =     0.00000000    0.00000000    0.00000000

     Total force =     0.000110     Total SCF correction =     0.000000

     Computing stress (Cartesian axis) and pressure

          total   stress  (Ry/bohr**3)                   (kbar)     P=   -6.97
  -0.00004598  -0.00000000   0.00000000         -6.76     -0.00      0.00
   0.00000000  -0.00004598   0.00000000          0.00     -6.76      0.00
   0.00000000   0.00000000  -0.00005013          0.00      0.00     -7.37

     General routines

     Parallel routines

      55h

   This run was terminated on:  16: 1:36  26Jan2020

   JOB DONE.