     Program PWSCF v.6.3MaX starts on  2Feb2020 at 13:43: 4

     R & G space division:  proc/nbgrp/npool/nimage =       4
     Waiting for input...
     Reading input from standard input

     Current dimensions of program PWSCF are:
     Max number of different atomic species (ntypx) = 10
     Max number of k-points (npk) =  40000
     Max angular momentum in pseudopotentials (lmaxx) =  3
     Message from routine iosys:
     minimal I/O required, wf_collect reset to FALSE

     Subspace diagonalization in iterative solution of the eigenvalue problem:
     a serial algorithm will be used

     bravais-lattice index     =            0
     lattice parameter (alat)  =       1.8897  a.u.
     unit-cell volume          =    1077.7903 (a.u.)^3
     number of atoms/cell      =            8
     number of atomic types    =            2
     number of electrons       =        97.00
     number of Kohn-Sham states=           59
     kinetic-energy cutoff     =      40.0000  Ry
     charge density cutoff     =     400.0000  Ry
     convergence threshold     =      1.0E-10
     mixing beta               =       0.6000
     number of iterations used =            8  plain     mixing
     Exchange-correlation      = SLA PW PBE PBE ( 1  4  3  4 0 0)
     nstep                     =           50

     celldm(1)=   1.889726  celldm(2)=   0.000000  celldm(3)=   0.000000
     celldm(4)=   0.000000  celldm(5)=   0.000000  celldm(6)=   0.000000

     crystal axes: (cart. coord. in units of alat)
               a(1) = (  -1.522502   2.637051   4.972461 )
               a(2) = (  -1.522502   2.637051  -4.972461 )
               a(3) = (  -4.567506  -2.637051   0.000000 )

     reciprocal axes: (cart. coord. in units 2 pi/alat)
               b(1) = ( -0.082102  0.142204  0.100554 )
               b(2) = ( -0.082102  0.142204 -0.100554 )
               b(3) = ( -0.164203 -0.094803  0.000000 )

     PseudoPot. # 1 for Nb read from file:
     ./Nb.pbe-nsp-van.UPF
     MD5 check sum: 0a22fc7fb0ba19a08ca5db297a5d2854
     Pseudo is Ultrasoft + core correction, Zval = 13.0
     Generated by new atomic code, or converted to UPF format
     Using radial grid of  887 points,  6 beta functions with:
                l(1) =   0
                l(2) =   0
                l(3) =   1
                l(4) =   1
                l(5) =   2
                l(6) =   2
     Q(r) pseudized with  6 coefficients,  rinner =    1.000   1.000   1.000
                                                       1.000   1.000

     PseudoPot. # 2 for Ti read from file:
     ./Ti.pbe-sp-van_ak.UPF
     MD5 check sum: f98fea3e8887528921fefa5636a534ca
     Pseudo is Ultrasoft, Zval = 12.0
     Generated by new atomic code, or converted to UPF format
     Using radial grid of  851 points,  6 beta functions with:
                l(1) =   0
                l(2) =   0
                l(3) =   1
                l(4) =   1
                l(5) =   2
                l(6) =   2
     Q(r) pseudized with  8 coefficients,  rinner =    1.000   1.000   1.000
                                                       1.000   1.000

     atomic species   valence    mass     pseudopotential
        Nb            13.00    92.90638     Nb( 1.00)
        Ti            12.00    47.86700     Ti( 1.00)

      4 Sym. Ops. (no inversion) found ( 2 have fractional translation)

   Cartesian axes

     site n.     atom                  positions (alat units)
         1           Ti  tau(   1) = (  -7.6125106   2.6370512   0.0000000  )
         2           Ti  tau(   2) = (  -3.0450027   3.5160674  -2.4862307  )
         3           Ti  tau(   3) = (  -4.5675063   2.6370512   0.0000000  )
         4           Ti  tau(   4) = (  -4.5675048   0.8790162  -2.4862307  )
         5           Ti  tau(   5) = (  -6.0900085   0.0000000   0.0000000  )
         6           Ti  tau(   6) = (  -3.0450027   3.5160674   2.4862307  )
         7           Ti  tau(   7) = (  -3.0450042   0.0000000   0.0000000  )
         8           Nb  tau(   8) = (  -4.5675048   0.8790162   2.4862307  )

     number of k points=   186  Marzari-Vanderbilt smearing, width (Ry)=  0.0200

     Number of k-points >= 100: set verbosity='high' to print them.

     Initial potential from superposition of free atoms

     starting charge   89.99696, renormalised to   97.00000
     Starting wfcs are   83 randomized atomic wfcs

     Self-consistent Calculation

     iteration #  1     ecut=    40.00 Ry     beta= 0.60
     Davidson diagonalization with overlap
     ethr =  1.00E-02,  avg # of iterations =  4.5

     total energy              =    -930.71415110 Ry
     Harris-Foulkes estimate   =    -936.87602882 Ry
     estimated scf accuracy    <       8.23388473 Ry

[...]

     iteration # 13     ecut=    40.00 Ry     beta= 0.60
     Davidson diagonalization with overlap
     c_bands:  1 eigenvalues not converged
     c_bands:  1 eigenvalues not converged
     ethr =  1.01E-06,  avg # of iterations =  6.1

[...]

     End of self-consistent calculation

     Number of k-points >= 100: set verbosity='high' to print the bands.

     the Fermi energy is    11.9281 ev

!    total energy              =    -934.41040625 Ry
     Harris-Foulkes estimate   =    -934.41040625 Ry
     estimated scf accuracy    <          2.8E-11 Ry

     The total energy is the sum of the following terms:

     one-electron contribution =    -352.78839453 Ry
     hartree contribution      =     200.47834031 Ry
     xc contribution           =    -119.27444202 Ry
     ewald contribution        =    -662.82314208 Ry
     smearing contrib. (-TS)   =      -0.00276792 Ry

     convergence has been achieved in  26 iterations

     Forces acting on atoms (cartesian axes, Ry/au):

     atom    1 type  2   force =     0.00086834    0.00050134    0.00233530
     atom    2 type  2   force =    -0.00016533    0.00036556    0.00000000
     atom    3 type  2   force =    -0.00102957   -0.00059442    0.00000000
     atom    4 type  2   force =     0.00057406    0.00033143    0.00000000
     atom    5 type  2   force =     0.00086834    0.00050134   -0.00233530
     atom    6 type  2   force =     0.00023392   -0.00032596    0.00000000
     atom    7 type  2   force =    -0.00102957   -0.00059442    0.00000000
     atom    8 type  1   force =    -0.00032020   -0.00018487    0.00000000

     Total force =     0.004080     Total SCF correction =     0.000006

     Computing stress (Cartesian axis) and pressure

          total   stress  (Ry/bohr**3)                   (kbar)     P= -134.60
  -0.00087711  -0.00000279   0.00000000       -129.03     -0.41      0.00
  -0.00000279  -0.00087389   0.00000000         -0.41   -128.55      0.00
  -0.00000000   0.00000000  -0.00099407         -0.00      0.00   -146.23

     BFGS Geometry Optimization

     number of scf cycles    =   1
     number of bfgs steps    =   0

     enthalpy new            =    -934.4104062469 Ry

     new trust radius        =       0.1631747394 bohr
     new conv_thr            =            1.0E-10 Ry

     new unit-cell volume =   1005.50117 a.u.^3 (   148.99990 Ang^3 )
     density =      4.76960 g/cm^3

CELL_PARAMETERS (alat=  1.88972599)
  -1.489300908   2.579545026   4.848886978
  -1.489300908   2.579545026  -4.848886978
  -4.467166755  -2.579120114   0.000000000

ATOMIC_POSITIONS (angstrom)
Ti      -7.445319157   2.580229406   0.001205074
Ti      -2.978563247   3.439652554  -2.424443489
Ti      -4.468067597   2.579449836   0.000000000
Ti      -4.467113481   0.860302291  -2.424443489
Ti      -5.956018250   0.000684381  -0.001205074
Ti      -2.978356579   3.439294596   2.424443489
Ti      -2.978766689  -0.000095189   0.000000000
Nb      -4.467576310   0.860035077   2.424443489

     NEW-OLD atomic charge density approx. for the potential
     extrapolated charge   90.52979, renormalised to   97.00000

[...]

     enthalpy old            =    -934.4104062469 Ry
     enthalpy new            =    -934.4628594341 Ry

     CASE: enthalpy_new < enthalpy_old

[...]

     WARNING: bfgs curvature condition failed, Theta= 0.991
     new trust radius        =       0.0065688751 bohr
     new conv_thr            =            1.0E-10 Ry

[...]

     Threshold (ethr) on eigenvalues was too large:
     Diagonalizing with lowered threshold

     Davidson diagonalization with overlap
     ethr =  9.45E-08,  avg # of iterations =  2.1

[...]

     WARNING: bfgs curvature condition failed, Theta= 0.934
     new trust radius        =       0.0104167447 bohr
     new conv_thr            =            1.0E-10 Ry

[...]

     CASE: enthalpy_new > enthalpy_old

[...]

     small trust_radius: resetting bfgs history

[...]

     number of scf cycles    =  44
     number of bfgs steps    =  42

     enthalpy old            =    -934.4816537487 Ry
     enthalpy new            =    -934.4816537496 Ry

     CASE: enthalpy_new < enthalpy_old

     Message from routine bfgs:
     history already reset at previous step: stopping
     small trust_radius: resetting bfgs history

     new trust radius        =       0.0000101008 bohr
     new conv_thr            =            1.0E-12 Ry

     new unit-cell volume =    938.76588 a.u.^3 (   139.11075 Ang^3 )
     density =      5.10866 g/cm^3

[...]

ATOMIC_POSITIONS (angstrom)
Ti      -7.289632476   2.444190152   0.054700699
Ti      -2.976926991   3.311192604  -2.342849229
Ti      -4.329998189   2.489720493  -0.000000000
Ti      -4.406832775   0.782142929  -2.342849229
Ti      -5.849245768  -0.050633001  -0.054700699
Ti      -2.942045489   3.250776074   2.342849229
Ti      -2.889611481  -0.005102659  -0.000000000
Nb      -4.544554933   0.702629009   2.342849229

     NEW-OLD atomic charge density approx. for the potential
     extrapolated charge   96.99994, renormalised to   97.00000

[...]

     Threshold (ethr) on eigenvalues was too large:
     Diagonalizing with lowered threshold

     Davidson diagonalization with overlap
     ethr =  1.14E-12,  avg # of iterations =  4.2

[...]

     bfgs converged in  45 scf cycles and  43 bfgs steps
     (criteria: energy <  1.0E-10 Ry, force <  1.0E-05Ry/Bohr, cell <  1.0E-03kbar)

     End of BFGS Geometry Optimization

     Final enthalpy =    -934.4816537500 Ry
Begin final coordinates
     new unit-cell volume =    938.76588 a.u.^3 (   139.11075 Ang^3 )
     density =      5.10866 g/cm^3

CELL_PARAMETERS (alat=  1.88972599)
  -1.440386708   2.494823152   4.685698459
  -1.440386708   2.494823152  -4.685698459
  -4.462497188  -2.576424139  -0.000000000

ATOMIC_POSITIONS (angstrom)
Ti      -7.289632476   2.444190152   0.054700699
Ti      -2.976926991   3.311192604  -2.342849229
Ti      -4.329998189   2.489720493  -0.000000000
Ti      -4.406832775   0.782142929  -2.342849229
Ti      -5.849245768  -0.050633001  -0.054700699
Ti      -2.942045489   3.250776074   2.342849229
Ti      -2.889611481  -0.005102659  -0.000000000
Nb      -4.544554933   0.702629009   2.342849229
End final coordinates

     A final scf calculation at the relaxed structure.
     The G-vectors are recalculated for the final unit cell
     Results may differ from those at the preceding step.

     bravais-lattice index     =            0
     lattice parameter (alat)  =       1.8897  a.u.
     unit-cell volume          =     938.7659 (a.u.)^3
     number of atoms/cell      =            8
     number of atomic types    =            2
     number of electrons       =        97.00
     number of Kohn-Sham states=           59
     kinetic-energy cutoff     =      40.0000  Ry
     charge density cutoff     =     400.0000  Ry
     convergence threshold     =      1.0E-12
     mixing beta               =       0.6000
     number of iterations used =            8  plain     mixing
     Exchange-correlation      = SLA PW PBE PBE ( 1  4  3  4 0 0)

     celldm(1)=   1.889726  celldm(2)=   0.000000  celldm(3)=   0.000000
     celldm(4)=   0.000000  celldm(5)=   0.000000  celldm(6)=   0.000000

     crystal axes: (cart. coord. in units of alat)
               a(1) = (  -1.440387   2.494823   4.685698 )
               a(2) = (  -1.440387   2.494823  -4.685698 )
               a(3) = (  -4.462497  -2.576424  -0.000000 )

     reciprocal axes: (cart. coord. in units 2 pi/alat)
               b(1) = ( -0.086782  0.150311  0.106708 )
               b(2) = ( -0.086782  0.150311 -0.106708 )
               b(3) = ( -0.168067 -0.097034 -0.000000 )

     PseudoPot. # 1 for Nb read from file:
     ./Nb.pbe-nsp-van.UPF
     MD5 check sum: 0a22fc7fb0ba19a08ca5db297a5d2854
     Pseudo is Ultrasoft + core correction, Zval = 13.0
     Generated by new atomic code, or converted to UPF format
     Using radial grid of  887 points,  6 beta functions with:
                l(1) =   0
                l(2) =   0
                l(3) =   1
                l(4) =   1
                l(5) =   2
                l(6) =   2
     Q(r) pseudized with  6 coefficients,  rinner =    1.000   1.000   1.000
                                                       1.000   1.000

     PseudoPot. # 2 for Ti read from file:
     ./Ti.pbe-sp-van_ak.UPF
     MD5 check sum: f98fea3e8887528921fefa5636a534ca
     Pseudo is Ultrasoft, Zval = 12.0
     Generated by new atomic code, or converted to UPF format
     Using radial grid of  851 points,  6 beta functions with:
                l(1) =   0
                l(2) =   0
                l(3) =   1
                l(4) =   1
                l(5) =   2
                l(6) =   2
     Q(r) pseudized with  8 coefficients,  rinner =    1.000   1.000   1.000
                                                       1.000   1.000

     atomic species   valence    mass     pseudopotential
        Nb            13.00    92.90638     Nb( 1.00)
        Ti            12.00    47.86700     Ti( 1.00)

      4 Sym. Ops. (no inversion) found ( 2 have fractional translation)

   Cartesian axes

     site n.     atom                  positions (alat units)
         1           Ti  tau(   1) = (  -7.2896330   2.4441903   0.0547007  )
         2           Ti  tau(   2) = (  -2.9769272   3.3111929  -2.3428494  )
         3           Ti  tau(   3) = (  -4.3299985   2.4897207  -0.0000000  )
         4           Ti  tau(   4) = (  -4.4068331   0.7821430  -2.3428494  )
         5           Ti  tau(   5) = (  -5.8492462  -0.0506330  -0.0547007  )
         6           Ti  tau(   6) = (  -2.9420457   3.2507763   2.3428494  )
         7           Ti  tau(   7) = (  -2.8896117  -0.0051027  -0.0000000  )
         8           Nb  tau(   8) = (  -4.5445553   0.7026291   2.3428494  )

     number of k points=   186  Marzari-Vanderbilt smearing, width (Ry)=  0.0200

     Number of k-points >= 100: set verbosity='high' to print them.

     Initial potential from superposition of free atoms

     starting charge   89.99696, renormalised to   97.00000
     Starting wfcs are   83 randomized atomic wfcs

     Self-consistent Calculation

[...]

     iteration # 12     ecut=    40.00 Ry     beta= 0.60
     Davidson diagonalization with overlap
     c_bands:  1 eigenvalues not converged
     c_bands:  1 eigenvalues not converged
     ethr =  5.17E-07,  avg # of iterations =  6.0

[...]

     total energy              =    -934.47331444 Ry
     Harris-Foulkes estimate   =    -934.47331444 Ry
     estimated scf accuracy    <          1.0E-12 Ry

     iteration # 27     ecut=    40.00 Ry     beta= 0.60
     Davidson diagonalization with overlap
     ethr =  1.00E-13,  avg # of iterations =  1.0

     End of self-consistent calculation

     Number of k-points >= 100: set verbosity='high' to print the bands.

     the Fermi energy is    14.0399 ev

!    total energy              =    -934.47331444 Ry
     Harris-Foulkes estimate   =    -934.47331444 Ry
     estimated scf accuracy    <          1.9E-13 Ry

     The total energy is the sum of the following terms:

     one-electron contribution =    -306.41408054 Ry
     hartree contribution      =     185.91305671 Ry
     xc contribution           =    -120.10777288 Ry
     ewald contribution        =    -693.86230650 Ry
     smearing contrib. (-TS)   =      -0.00221124 Ry

     convergence has been achieved in  27 iterations

     Forces acting on atoms (cartesian axes, Ry/au):

     atom    1 type  2   force =     0.00009507    0.00005489   -0.00006575
     atom    2 type  2   force =     0.00011335    0.00002934   -0.00000000
     atom    3 type  2   force =    -0.00005058   -0.00002920   -0.00000000
     atom    4 type  2   force =    -0.00021940   -0.00012667   -0.00000000
     atom    5 type  2   force =     0.00009507    0.00005489    0.00006575
     atom    6 type  2   force =     0.00008209    0.00008350    0.00000000
     atom    7 type  2   force =    -0.00005058   -0.00002920   -0.00000000
     atom    8 type  1   force =    -0.00006502   -0.00003754   -0.00000000

     Total force =     0.000370     Total SCF correction =     0.000000

     Computing stress (Cartesian axis) and pressure

          total   stress  (Ry/bohr**3)                   (kbar)     P=   -7.51
  -0.00004534   0.00000539   0.00000000         -6.67      0.79      0.00
   0.00000539  -0.00005157  -0.00000000          0.79     -7.59     -0.00
   0.00000000  -0.00000000  -0.00005628          0.00     -0.00     -8.28

     General routines

     Parallel routines

      16h

   This run was terminated on:  22:59:44   2Feb2020

   JOB DONE.