     Program PWSCF v.6.3MaX starts on  8Feb2020 at 12:35:53

     R & G space division:  proc/nbgrp/npool/nimage =       4
     Waiting for input...
     Reading input from standard input

     Current dimensions of program PWSCF are:
     Max number of different atomic species (ntypx) = 10
     Max number of k-points (npk) =  40000
     Max angular momentum in pseudopotentials (lmaxx) =  3
     Message from routine iosys:
     minimal I/O required, wf_collect reset to FALSE

     Subspace diagonalization in iterative solution of the eigenvalue problem:
     a serial algorithm will be used

     warning: symmetry operation #  2 not compatible with FFT grid.
   0   1  -1
   1   0  -1
   0   0  -1
     warning: symmetry operation #  3 not compatible with FFT grid.
   0   1  -1
   0   1   0
  -1   1   0
     warning: symmetry operation #  4 not compatible with FFT grid.
   1   0   0
   1   0  -1
   1  -1   0

     bravais-lattice index     =            0
     lattice parameter (alat)  =       1.8897  a.u.
     unit-cell volume          =    1077.7903 (a.u.)^3
     number of atoms/cell      =            8
     number of atomic types    =            2
     number of electrons       =       103.00
     number of Kohn-Sham states=           62
     kinetic-energy cutoff     =      40.0000  Ry
     charge density cutoff     =     400.0000  Ry
     convergence threshold     =      1.0E-10
     mixing beta               =       0.6000
     number of iterations used =            8  plain     mixing
     Exchange-correlation      = SLA PW PBE PBE ( 1  4  3  4 0 0)
     nstep                     =           50

     celldm(1)=   1.889726  celldm(2)=   0.000000  celldm(3)=   0.000000
     celldm(4)=   0.000000  celldm(5)=   0.000000  celldm(6)=   0.000000

     crystal axes: (cart. coord. in units of alat)
               a(1) = (   4.567506   2.637051  -4.972461 )
               a(2) = (   6.090008   0.000000   0.000000 )
               a(3) = (   1.522502  -2.637051  -4.972461 )

     reciprocal axes: (cart. coord. in units 2 pi/alat)
               b(1) = (  0.000000  0.189606 -0.100554 )
               b(2) = (  0.164203 -0.094803  0.100554 )
               b(3) = (  0.000000 -0.189606 -0.100554 )

     PseudoPot. # 1 for Nb read from file:
     ./Nb.pbe-nsp-van.UPF
     MD5 check sum: 0a22fc7fb0ba19a08ca5db297a5d2854
     Pseudo is Ultrasoft + core correction, Zval = 13.0
     Generated by new atomic code, or converted to UPF format
     Using radial grid of  887 points,  6 beta functions with:
                l(1) =   0
                l(2) =   0
                l(3) =   1
                l(4) =   1
                l(5) =   2
                l(6) =   2
     Q(r) pseudized with  6 coefficients,  rinner =    1.000   1.000   1.000
                                                       1.000   1.000

     PseudoPot. # 2 for Ti read from file:
     ./Ti.pbe-sp-van_ak.UPF
     MD5 check sum: f98fea3e8887528921fefa5636a534ca
     Pseudo is Ultrasoft, Zval = 12.0
     Generated by new atomic code, or converted to UPF format
     Using radial grid of  851 points,  6 beta functions with:
                l(1) =   0
                l(2) =   0
                l(3) =   1
                l(4) =   1
                l(5) =   2
                l(6) =   2
     Q(r) pseudized with  8 coefficients,  rinner =    1.000   1.000   1.000
                                                       1.000   1.000

     atomic species   valence    mass     pseudopotential
        Nb            13.00    92.90638     Nb( 1.00)
        Ti            12.00    47.86700     Ti( 1.00)

     No symmetry found

   Cartesian axes

     site n.     atom                  positions (alat units)
         1           Ti  tau(   1) = (   6.0900085   0.0000000  -4.9724614  )
         2           Nb  tau(   2) = (   4.5675079   0.8790162  -2.4862307  )
         3           Nb  tau(   3) = (   9.1350127   0.0000000  -4.9724614  )
         4           Nb  tau(   4) = (   7.6125121   0.8790162  -2.4862307  )
         5           Nb  tau(   5) = (   9.1350127   0.0000000  -9.9449228  )
         6           Nb  tau(   6) = (   7.6125121   0.8790162  -7.4586921  )
         7           Nb  tau(   7) = (  12.1800169   0.0000000  -9.9449228  )
         8           Nb  tau(   8) = (  10.6575163   0.8790162  -7.4586921  )

     number of k points=   504  Marzari-Vanderbilt smearing, width (Ry)=  0.0200

     Number of k-points >= 100: set verbosity='high' to print them.

     Check: negative/imaginary core charge=   -0.000001    0.000000

     Initial potential from superposition of free atoms

     starting charge  101.98082, renormalised to  103.00000
     Starting wfcs are  101 randomized atomic wfcs

     Self-consistent Calculation

     iteration #  1     ecut=    40.00 Ry     beta= 0.60
     Davidson diagonalization with overlap
     ethr =  1.00E-02,  avg # of iterations =  2.0

     total energy              =    -919.63333204 Ry
     Harris-Foulkes estimate   =    -944.58328923 Ry
     estimated scf accuracy    <      31.23120129 Ry

[...]

     End of self-consistent calculation

     Number of k-points >= 100: set verbosity='high' to print the bands.

     the Fermi energy is    15.6993 ev

!    total energy              =    -941.96873607 Ry
     Harris-Foulkes estimate   =    -941.96873607 Ry
     estimated scf accuracy    <          6.3E-11 Ry

     The total energy is the sum of the following terms:

     one-electron contribution =    -191.77819610 Ry
     hartree contribution      =     139.90071744 Ry
     xc contribution           =    -142.75549815 Ry
     ewald contribution        =    -747.33382021 Ry
     smearing contrib. (-TS)   =      -0.00193905 Ry

     convergence has been achieved in  31 iterations

     Forces acting on atoms (cartesian axes, Ry/au):

     atom    1 type  2   force =     0.00065222    0.00037548   -0.00000042
     atom    2 type  1   force =     0.00127072    0.00073350    0.00000025
     atom    3 type  1   force =    -0.00115795    0.00647244    0.00000035
     atom    4 type  1   force =    -0.00113717   -0.00065599   -0.00630354
     atom    5 type  1   force =     0.00502623   -0.00423872   -0.00000010
     atom    6 type  1   force =    -0.00113731   -0.00065688    0.00630342
     atom    7 type  1   force =    -0.00478768   -0.00276398    0.00000037
     atom    8 type  1   force =     0.00127095    0.00073415   -0.00000032

     Total force =     0.014311     Total SCF correction =     0.000012

     Computing stress (Cartesian axis) and pressure

          total   stress  (Ry/bohr**3)                   (kbar)     P= -108.11
  -0.00088579   0.00000133   0.00000000       -130.30      0.20      0.00
   0.00000133  -0.00088732   0.00000000          0.20   -130.53      0.00
   0.00000000   0.00000000  -0.00043158          0.00      0.00    -63.49

     BFGS Geometry Optimization

     number of scf cycles    =   1
     number of bfgs steps    =   0

     enthalpy new            =    -941.9687360730 Ry

     new trust radius        =       0.1456531561 bohr
     new conv_thr            =            1.0E-10 Ry

     new unit-cell volume =   1019.42446 a.u.^3 (   151.06312 Ang^3 )
     density =      7.67499 g/cm^3

CELL_PARAMETERS (alat=  1.88972599)
   4.466447147   2.578704473  -4.918809831
   5.955146246   0.000202213   0.000000120
   1.488698903  -2.578502689  -4.918810119

ATOMIC_POSITIONS (angstrom)
Ti       5.955483651   0.000396299  -4.918810135
Nb       4.467047867   0.860047930  -2.459404761
Nb       8.932120193   0.003652173  -4.918809675
Nb       7.443374983   0.859430021  -2.462704531
Nb       8.935319965  -0.001890298  -9.837619941
Nb       7.443374815   0.859429346  -7.374915229
Nb      11.907814822  -0.001026280  -9.837619639
Nb      10.422194134   0.860250267  -7.378214971

     NEW-OLD atomic charge density approx. for the potential

     Check: negative/imaginary core charge=   -0.000001    0.000000
     extrapolated charge   97.16122, renormalised to  103.00000

[...]

     iteration #  1     ecut=    40.00 Ry     beta= 0.60
     Davidson diagonalization with overlap
     c_bands:  1 eigenvalues not converged
     c_bands:  1 eigenvalues not converged
     c_bands:  1 eigenvalues not converged
     c_bands:  1 eigenvalues not converged
     c_bands:  1 eigenvalues not converged
     c_bands:  1 eigenvalues not converged
     c_bands:  1 eigenvalues not converged
     c_bands:  1 eigenvalues not converged
     c_bands:  1 eigenvalues not converged
     c_bands:  1 eigenvalues not converged
     c_bands:  1 eigenvalues not converged
     c_bands:  1 eigenvalues not converged
     c_bands:  1 eigenvalues not converged
     c_bands:  1 eigenvalues not converged
     c_bands:  1 eigenvalues not converged
     c_bands:  1 eigenvalues not converged
     c_bands:  1 eigenvalues not converged
     c_bands:  1 eigenvalues not converged
     c_bands:  1 eigenvalues not converged
     c_bands:  1 eigenvalues not converged
     c_bands:  1 eigenvalues not converged
     c_bands:  1 eigenvalues not converged
     c_bands:  1 eigenvalues not converged
     c_bands:  1 eigenvalues not converged
     c_bands:  1 eigenvalues not converged
     c_bands:  1 eigenvalues not converged
     c_bands:  1 eigenvalues not converged
     c_bands:  1 eigenvalues not converged
     c_bands:  1 eigenvalues not converged
     c_bands:  1 eigenvalues not converged
     c_bands:  1 eigenvalues not converged
     c_bands:  2 eigenvalues not converged
     c_bands:  1 eigenvalues not converged
     c_bands:  1 eigenvalues not converged
     c_bands:  1 eigenvalues not converged
     c_bands:  1 eigenvalues not converged
     c_bands:  2 eigenvalues not converged
     c_bands:  1 eigenvalues not converged
     c_bands:  1 eigenvalues not converged
     c_bands:  1 eigenvalues not converged
     c_bands:  1 eigenvalues not converged
     c_bands:  1 eigenvalues not converged
     c_bands:  1 eigenvalues not converged
     c_bands:  1 eigenvalues not converged
     c_bands:  1 eigenvalues not converged
     c_bands:  1 eigenvalues not converged
     c_bands:  1 eigenvalues not converged
     c_bands:  1 eigenvalues not converged
     c_bands:  1 eigenvalues not converged
     c_bands:  1 eigenvalues not converged
     c_bands:  1 eigenvalues not converged
     c_bands:  1 eigenvalues not converged
     c_bands:  1 eigenvalues not converged
     c_bands:  1 eigenvalues not converged
     c_bands:  1 eigenvalues not converged
     c_bands:  1 eigenvalues not converged
     c_bands:  1 eigenvalues not converged
     c_bands:  1 eigenvalues not converged
     c_bands:  1 eigenvalues not converged
     c_bands:  1 eigenvalues not converged
[...]
     c_bands:  1 eigenvalues not converged
     c_bands:  1 eigenvalues not converged
     c_bands:  1 eigenvalues not converged
     c_bands:  2 eigenvalues not converged
     c_bands:  1 eigenvalues not converged
     c_bands:  1 eigenvalues not converged
     c_bands:  1 eigenvalues not converged
     c_bands:  1 eigenvalues not converged
     c_bands:  1 eigenvalues not converged
     c_bands:  1 eigenvalues not converged
     c_bands:  1 eigenvalues not converged
     c_bands:  1 eigenvalues not converged
     c_bands:  2 eigenvalues not converged
     c_bands:  2 eigenvalues not converged
     c_bands:  2 eigenvalues not converged
     ethr =  1.00E-06,  avg # of iterations = 15.4

[...]

     enthalpy old            =    -941.9687360730 Ry
     enthalpy new            =    -942.0022525393 Ry

     CASE: enthalpy_new < enthalpy_old

[...]

     iteration # 11     ecut=    40.00 Ry     beta= 0.60
     Davidson diagonalization with overlap
<<<<<<< HEAD
<<<<<<< HEAD
>>>>>>> 5e9e5684d371b66e74b3227e06fdcc8ee35ef154
     ethr =  3.31E-09,  avg # of iterations =  3.2

[...]

     NEW-OLD atomic charge density approx. for the potential
     extrapolated charge  104.16629, renormalised to  103.00000

[...]

     Threshold (ethr) on eigenvalues was too large:
     Diagonalizing with lowered threshold

     Davidson diagonalization with overlap
     ethr =  2.24E-08,  avg # of iterations =  2.8

[...]

     NEW-OLD atomic charge density approx. for the potential

     Check: negative/imaginary core charge=   -0.000001    0.000000
     extrapolated charge  102.95732, renormalised to  103.00000

[...]

     WARNING: bfgs curvature condition failed, Theta= 0.661
     new trust radius        =       0.0316298442 bohr
     new conv_thr            =            1.0E-10 Ry

[...]

     WARNING: info= 29 for Hessian

[...]

     CASE: enthalpy_new > enthalpy_old

[...]

     WARNING: info= 29 for Hessian

[...]

     CASE: enthalpy_new > enthalpy_old

     new trust radius        =       0.0000559243 bohr

     trust_radius < trust_radius_min

     resetting bfgs history

     new conv_thr            =            5.0E-11 Ry

[...]

     iteration #  2     ecut=    40.00 Ry     beta= 0.60
     Davidson diagonalization with overlap
     c_bands:  1 eigenvalues not converged
     c_bands:  1 eigenvalues not converged
     c_bands:  1 eigenvalues not converged
     c_bands:  1 eigenvalues not converged
     ethr =  5.39E-06,  avg # of iterations =  6.7

[...]

     new trust radius        =       0.0070947404 bohr
     new conv_thr            =            7.9E-11 Ry

[...]

     Self-consistent Calculation

[...]

     Threshold (ethr) on eigenvalues was too large:
     Diagonalizing with lowered threshold

     Davidson diagonalization with overlap
     ethr =  4.50E-08,  avg # of iterations =  2.0

[...]

     total energy              =    -942.08026235 Ry
     Harris-Foulkes estimate   =    -942.08026235 Ry
     estimated scf accuracy    <          1.8E-10 Ry

     iteration # 15     ecut=    40.00 Ry     beta= 0.60
     Davidson diagonalization with overlap
     ethr =  1.72E-13,  avg # of iterations =  2.2

     End of self-consistent calculation

     Number of k-points >= 100: set verbosity='high' to print the bands.

     the Fermi energy is    17.1691 ev

!    total energy              =    -942.08026235 Ry
     Harris-Foulkes estimate   =    -942.08026235 Ry
     estimated scf accuracy    <          1.1E-11 Ry

     The total energy is the sum of the following terms:

     one-electron contribution =    -164.58476650 Ry
     hartree contribution      =     133.05974563 Ry
     xc contribution           =    -143.55722493 Ry
     ewald contribution        =    -766.99905689 Ry
     smearing contrib. (-TS)   =       0.00104034 Ry

     convergence has been achieved in  15 iterations

     Forces acting on atoms (cartesian axes, Ry/au):

     atom    1 type  2   force =    -0.00129218    0.00002648    0.00000019
     atom    2 type  1   force =     0.00091029   -0.00060108    0.00013587
     atom    3 type  1   force =    -0.00064570    0.00105971    0.00000080
     atom    4 type  1   force =     0.00032150   -0.00067392   -0.00007507
     atom    5 type  1   force =    -0.00049664    0.00060439    0.00000039
     atom    6 type  1   force =     0.00032094   -0.00067380    0.00007391
     atom    7 type  1   force =    -0.00002825    0.00085952    0.00000028
     atom    8 type  1   force =     0.00091004   -0.00060130   -0.00013637

     Total force =     0.002847     Total SCF correction =     0.000005

     Computing stress (Cartesian axis) and pressure

          total   stress  (Ry/bohr**3)                   (kbar)     P=   -0.18
   0.00000569  -0.00000239  -0.00000000          0.84     -0.35     -0.00
  -0.00000239  -0.00000552  -0.00000000         -0.35     -0.81     -0.00
  -0.00000000  -0.00000000  -0.00000384         -0.00     -0.00     -0.56

     number of scf cycles    =  50
     number of bfgs steps    =  41

     enthalpy old            =    -942.0802544653 Ry
     enthalpy new            =    -942.0802623539 Ry

     CASE: enthalpy_new < enthalpy_old

     WARNING: bfgs curvature condition failed, Theta= 0.391
     new trust radius        =       0.0106391680 bohr
     new conv_thr            =            1.0E-10 Ry

     new unit-cell volume =    988.98933 a.u.^3 (   146.55310 Ang^3 )
     density =      7.91118 g/cm^3

CELL_PARAMETERS (alat=  1.88972599)
   4.823381257   2.774745401  -4.971287156
   6.152651731   0.483499205   0.000001255
   1.329267284  -2.291250829  -4.971288332

ATOMIC_POSITIONS (angstrom)
Ti       6.270142254   0.555712646  -4.971289051
Nb       4.534422318   1.073810446  -2.484800018
Nb       9.385179607   0.832997313  -4.971290467
Nb       7.596575109   1.308975679  -2.536888635
Nb       9.393894978   0.816099092  -9.942573947
Nb       7.596577190   1.308974364  -7.405681613
Nb      12.493816878   1.080750397  -9.942572192
Nb      10.687076040   1.557309838  -7.457773623

     NEW-OLD atomic charge density approx. for the potential
     extrapolated charge  103.00937, renormalised to  103.00000

     General routines

     Parallel routines

   This run was terminated on:  20:30:13   9Feb2020

   JOB DONE.
<<<<<<< HEAD
>>>>>>> 916d4709b2147fd693e56315b3824d3945851775
>>>>>>> 5e9e5684d371b66e74b3227e06fdcc8ee35ef154