     Program PWSCF v.6.3MaX starts on 23Feb2020 at 16:14:19

     R & G space division:  proc/nbgrp/npool/nimage =       4
     Waiting for input...
     Reading input from standard input

     Current dimensions of program PWSCF are:
     Max number of different atomic species (ntypx) = 10
     Max number of k-points (npk) =  40000
     Max angular momentum in pseudopotentials (lmaxx) =  3
     Message from routine iosys:
     minimal I/O required, wf_collect reset to FALSE

     Subspace diagonalization in iterative solution of the eigenvalue problem:
     a serial algorithm will be used

     bravais-lattice index     =            0
     lattice parameter (alat)  =       1.8897  a.u.
     unit-cell volume          =     586.6735 (a.u.)^3
     number of atoms/cell      =            4
     number of atomic types    =            2
     number of electrons       =        51.00
     number of Kohn-Sham states=           31
     kinetic-energy cutoff     =      50.0000  Ry
     charge density cutoff     =     500.0000  Ry
     convergence threshold     =      1.0E-10
     mixing beta               =       0.6000
     number of iterations used =            8  plain     mixing
     Exchange-correlation      = SLA PW PBE PBE ( 1  4  3  4 0 0)
     nstep                     =           50

     celldm(1)=   1.889726  celldm(2)=   0.000000  celldm(3)=   0.000000
     celldm(4)=   0.000000  celldm(5)=   0.000000  celldm(6)=   0.000000

     crystal axes: (cart. coord. in units of alat)
               a(1) = (   1.758031   1.758031   5.274095 )
               a(2) = (  -1.758031   5.274095   1.758031 )
               a(3) = (  -1.758031  -5.274095  -1.758031 )

     reciprocal axes: (cart. coord. in units 2 pi/alat)
               b(1) = (  0.000000 -0.071102  0.213307 )
               b(2) = ( -0.284409  0.071102  0.071102 )
               b(3) = ( -0.284409 -0.142205  0.142205 )

     PseudoPot. # 1 for Nb read from file:
     ./Nb.pbe-nsp-van.UPF
     MD5 check sum: 0a22fc7fb0ba19a08ca5db297a5d2854
     Pseudo is Ultrasoft + core correction, Zval = 13.0
     Generated by new atomic code, or converted to UPF format
     Using radial grid of  887 points,  6 beta functions with:
                l(1) =   0
                l(2) =   0
                l(3) =   1
                l(4) =   1
                l(5) =   2
                l(6) =   2
     Q(r) pseudized with  6 coefficients,  rinner =    1.000   1.000   1.000
                                                       1.000   1.000

     PseudoPot. # 2 for Ti read from file:
     ./Ti.pbe-sp-van_ak.UPF
     MD5 check sum: f98fea3e8887528921fefa5636a534ca
     Pseudo is Ultrasoft, Zval = 12.0
     Generated by new atomic code, or converted to UPF format
     Using radial grid of  851 points,  6 beta functions with:
                l(1) =   0
                l(2) =   0
                l(3) =   1
                l(4) =   1
                l(5) =   2
                l(6) =   2
     Q(r) pseudized with  8 coefficients,  rinner =    1.000   1.000   1.000
                                                       1.000   1.000

     atomic species   valence    mass     pseudopotential
        Nb            13.00    92.90638     Nb( 1.00)
        Ti            12.00    47.86700     Ti( 1.00)

      8 Sym. Ops., with inversion, found ( 4 have fractional translation)

   Cartesian axes

     site n.     atom                  positions (alat units)
         1           Ti  tau(   1) = (  -1.7580316   1.7580316   1.7580316  )
         2           Nb  tau(   2) = (  -1.7580316  -1.7580316   1.7580316  )
         3           Nb  tau(   3) = (  -1.7580316   1.7580316   5.2740949  )
         4           Nb  tau(   4) = (   0.0000000   0.0000000   3.5160633  )

     number of k points=   343  Marzari-Vanderbilt smearing, width (Ry)=  0.0200

     Number of k-points >= 100: set verbosity='high' to print them.

     Initial potential from superposition of free atoms

     starting charge   49.99176, renormalised to   51.00000
     Starting wfcs are   49 randomized atomic wfcs

     Self-consistent Calculation

     iteration #  1     ecut=    50.00 Ry     beta= 0.60
     Davidson diagonalization with overlap
     ethr =  1.00E-02,  avg # of iterations =  2.0

     total energy              =    -452.50679300 Ry
     Harris-Foulkes estimate   =    -472.25429079 Ry
     estimated scf accuracy    <      24.76510820 Ry

[...]

     End of self-consistent calculation

     Number of k-points >= 100: set verbosity='high' to print the bands.

     the Fermi energy is    13.2767 ev

!    total energy              =    -470.35460426 Ry
     Harris-Foulkes estimate   =    -470.35460426 Ry
     estimated scf accuracy    <          2.3E-11 Ry

     The total energy is the sum of the following terms:

     one-electron contribution =    -124.21098681 Ry
     hartree contribution      =      79.31949535 Ry
     xc contribution           =     -69.12127455 Ry
     ewald contribution        =    -356.34186204 Ry
     smearing contrib. (-TS)   =       0.00002379 Ry

     convergence has been achieved in  24 iterations

     Forces acting on atoms (cartesian axes, Ry/au):

     atom    1 type  2   force =     0.00000000    0.00000000    0.00000000
     atom    2 type  1   force =    -0.00000000    0.01411930    0.01411930
     atom    3 type  1   force =    -0.00000000   -0.01411930   -0.01411930
     atom    4 type  1   force =     0.00000000    0.00000000   -0.00000000

     Total force =     0.028239     Total SCF correction =     0.000002

     Computing stress (Cartesian axis) and pressure

          total   stress  (Ry/bohr**3)                   (kbar)     P= -212.37
  -0.00143565   0.00000000  -0.00000000       -211.19      0.00     -0.00
   0.00000000  -0.00144771  -0.00002882          0.00   -212.97     -4.24
  -0.00000000  -0.00002882  -0.00144771         -0.00     -4.24   -212.97

     BFGS Geometry Optimization

     number of scf cycles    =   1
     number of bfgs steps    =   0

     enthalpy new            =    -470.3546042570 Ry

     new trust radius        =       0.1753625649 bohr
     new conv_thr            =            1.0E-10 Ry

     new unit-cell volume =    525.41507 a.u.^3 (    77.85848 Ang^3 )
     density =      6.96532 g/cm^3

CELL_PARAMETERS (alat=  1.88972599)
   1.694933531   1.690603226   5.081943347
  -1.694933531   5.081943347   1.690603226
  -1.694933531  -5.081943347  -1.690603226

ATOMIC_POSITIONS (angstrom)
Ti      -1.694933531   1.693136643   1.693136643
Nb      -1.694933531  -1.688474251   1.702865870
Nb      -1.694933531   1.683407416   5.074747538
Nb      -0.000000000  -0.002533418   3.388806704

     NEW-OLD atomic charge density approx. for the potential
     extrapolated charge   45.17144, renormalised to   51.00000

[...]

     iteration #  1     ecut=    50.00 Ry     beta= 0.60
     Davidson diagonalization with overlap
     c_bands:  1 eigenvalues not converged
     c_bands:  1 eigenvalues not converged
     c_bands:  1 eigenvalues not converged
     c_bands:  1 eigenvalues not converged
     c_bands:  1 eigenvalues not converged
     c_bands:  1 eigenvalues not converged
     c_bands:  1 eigenvalues not converged
     c_bands:  1 eigenvalues not converged
     c_bands:  1 eigenvalues not converged
     c_bands:  1 eigenvalues not converged
     c_bands:  1 eigenvalues not converged
     c_bands:  1 eigenvalues not converged
     c_bands:  1 eigenvalues not converged
     c_bands:  1 eigenvalues not converged
     c_bands:  1 eigenvalues not converged
     c_bands:  2 eigenvalues not converged
     c_bands:  1 eigenvalues not converged
     c_bands:  1 eigenvalues not converged
     c_bands:  1 eigenvalues not converged
     c_bands:  1 eigenvalues not converged
     c_bands:  1 eigenvalues not converged
     c_bands:  1 eigenvalues not converged
     c_bands:  2 eigenvalues not converged
     c_bands:  1 eigenvalues not converged
     c_bands:  1 eigenvalues not converged
     c_bands:  1 eigenvalues not converged
     c_bands:  1 eigenvalues not converged
     c_bands:  1 eigenvalues not converged
     c_bands:  1 eigenvalues not converged
     c_bands:  1 eigenvalues not converged
     c_bands:  1 eigenvalues not converged
     c_bands:  1 eigenvalues not converged
     c_bands:  1 eigenvalues not converged
     c_bands:  1 eigenvalues not converged
     c_bands:  1 eigenvalues not converged
     c_bands:  1 eigenvalues not converged
     c_bands:  1 eigenvalues not converged
     c_bands:  1 eigenvalues not converged
     c_bands:  1 eigenvalues not converged
     c_bands:  1 eigenvalues not converged
     c_bands:  1 eigenvalues not converged
     c_bands:  1 eigenvalues not converged
     c_bands:  1 eigenvalues not converged
     c_bands:  1 eigenvalues not converged
     c_bands:  1 eigenvalues not converged
     c_bands:  1 eigenvalues not converged
     c_bands:  1 eigenvalues not converged
     c_bands:  1 eigenvalues not converged
     c_bands:  1 eigenvalues not converged
     c_bands:  1 eigenvalues not converged
     c_bands:  1 eigenvalues not converged
     c_bands:  1 eigenvalues not converged
     ethr =  1.00E-06,  avg # of iterations = 14.9

[...]

     enthalpy old            =    -470.3546042570 Ry
     enthalpy new            =    -470.4258942307 Ry

     CASE: enthalpy_new < enthalpy_old

[...]

     iteration #  1     ecut=    50.00 Ry     beta= 0.60
     Davidson diagonalization with overlap
     c_bands:  1 eigenvalues not converged
     ethr =  1.00E-06,  avg # of iterations = 12.1

[...]

     Threshold (ethr) on eigenvalues was too large:
     Diagonalizing with lowered threshold

     Davidson diagonalization with overlap
     ethr =  9.98E-08,  avg # of iterations =  2.0

[...]

     CASE: enthalpy_new < enthalpy_old

     new trust radius        =       0.0001365244 bohr
     new conv_thr            =            1.0E-12 Ry

[...]

     CASE: enthalpy_new > enthalpy_old

     new trust radius        =       0.0000342863 bohr

     trust_radius < trust_radius_min

     resetting bfgs history

     new conv_thr            =            1.0E-12 Ry

[...]

     NEW-OLD atomic charge density approx. for the potential
     extrapolated charge   51.00076, renormalised to   51.00000

[...]

     Total force =     0.000007     Total SCF correction =     0.000001
     SCF correction compared to forces is large: reduce conv_thr to get better values

[...]

     number of scf cycles    =  18
     number of bfgs steps    =  16

     enthalpy old            =    -470.4469769176 Ry
     enthalpy new            =    -470.4469768206 Ry

     CASE: enthalpy_new > enthalpy_old

     new trust radius        =       0.0000020835 bohr

     trust_radius < trust_radius_min

     resetting bfgs history

     Message from routine bfgs:
     history already reset at previous step: stopping
     new conv_thr            =            1.0E-12 Ry

     new unit-cell volume =    481.36106 a.u.^3 (    71.33035 Ang^3 )
     density =      7.60278 g/cm^3

[...]

ATOMIC_POSITIONS (angstrom)
Ti      -1.650357207   1.608205514   1.608205514
Nb      -1.650357207  -1.634914667   1.724510387
Nb      -1.650357207   1.491900640   4.851325694
Nb      -0.000000000  -0.071507013   3.287918041

     NEW-OLD atomic charge density approx. for the potential

[...]

     Threshold (ethr) on eigenvalues was too large:
     Diagonalizing with lowered threshold

     Davidson diagonalization with overlap
     ethr =  8.28E-14,  avg # of iterations =  1.3

[...]

     Total force =     0.000007     Total SCF correction =     0.000001
     SCF correction compared to forces is large: reduce conv_thr to get better values

[...]

     bfgs converged in  19 scf cycles and  16 bfgs steps
     (criteria: energy <  1.0E-10 Ry, force <  1.0E-05Ry/Bohr, cell <  1.0E-03kbar)

     End of BFGS Geometry Optimization

     Final enthalpy =    -470.4469768205 Ry
Begin final coordinates
     new unit-cell volume =    481.36106 a.u.^3 (    71.33035 Ang^3 )
     density =      7.60278 g/cm^3

CELL_PARAMETERS (alat=  1.88972599)
   1.650357207   1.536698500   4.896123554
  -1.650357207   4.896123554   1.536698500
  -1.650357207  -4.896123554  -1.536698500

ATOMIC_POSITIONS (angstrom)
Ti      -1.650357207   1.608205514   1.608205514
Nb      -1.650357207  -1.634914667   1.724510387
Nb      -1.650357207   1.491900640   4.851325694
Nb      -0.000000000  -0.071507013   3.287918041
End final coordinates

     A final scf calculation at the relaxed structure.
     The G-vectors are recalculated for the final unit cell
     Results may differ from those at the preceding step.

     bravais-lattice index     =            0
     lattice parameter (alat)  =       1.8897  a.u.
     unit-cell volume          =     481.3611 (a.u.)^3
     number of atoms/cell      =            4
     number of atomic types    =            2
     number of electrons       =        51.00
     number of Kohn-Sham states=           31
     kinetic-energy cutoff     =      50.0000  Ry
     charge density cutoff     =     500.0000  Ry
     convergence threshold     =      1.0E-12
     mixing beta               =       0.6000
     number of iterations used =            8  plain     mixing
     Exchange-correlation      = SLA PW PBE PBE ( 1  4  3  4 0 0)

     celldm(1)=   1.889726  celldm(2)=   0.000000  celldm(3)=   0.000000
     celldm(4)=   0.000000  celldm(5)=   0.000000  celldm(6)=   0.000000

     crystal axes: (cart. coord. in units of alat)
               a(1) = (   1.650357   1.536699   4.896124 )
               a(2) = (  -1.650357   4.896124   1.536699 )
               a(3) = (  -1.650357  -4.896124  -1.536699 )

     reciprocal axes: (cart. coord. in units 2 pi/alat)
               b(1) = (  0.000000 -0.071109  0.226561 )
               b(2) = ( -0.302965  0.077726  0.077726 )
               b(3) = ( -0.302965 -0.148835  0.148835 )

     PseudoPot. # 1 for Nb read from file:
     ./Nb.pbe-nsp-van.UPF
     MD5 check sum: 0a22fc7fb0ba19a08ca5db297a5d2854
     Pseudo is Ultrasoft + core correction, Zval = 13.0
     Generated by new atomic code, or converted to UPF format
     Using radial grid of  887 points,  6 beta functions with:
                l(1) =   0
                l(2) =   0
                l(3) =   1
                l(4) =   1
                l(5) =   2
                l(6) =   2
     Q(r) pseudized with  6 coefficients,  rinner =    1.000   1.000   1.000
                                                       1.000   1.000

     PseudoPot. # 2 for Ti read from file:
     ./Ti.pbe-sp-van_ak.UPF
     MD5 check sum: f98fea3e8887528921fefa5636a534ca
     Pseudo is Ultrasoft, Zval = 12.0
     Generated by new atomic code, or converted to UPF format
     Using radial grid of  851 points,  6 beta functions with:
                l(1) =   0
                l(2) =   0
                l(3) =   1
                l(4) =   1
                l(5) =   2
                l(6) =   2
     Q(r) pseudized with  8 coefficients,  rinner =    1.000   1.000   1.000
                                                       1.000   1.000

     atomic species   valence    mass     pseudopotential
        Nb            13.00    92.90638     Nb( 1.00)
        Ti            12.00    47.86700     Ti( 1.00)

      8 Sym. Ops., with inversion, found ( 4 have fractional translation)

   Cartesian axes

     site n.     atom                  positions (alat units)
         1           Ti  tau(   1) = (  -1.6503573   1.6082056   1.6082056  )
         2           Nb  tau(   2) = (  -1.6503573  -1.6349148   1.7245105  )
         3           Nb  tau(   3) = (  -1.6503573   1.4919008   4.8513261  )
         4           Nb  tau(   4) = (  -0.0000000  -0.0715070   3.2879183  )

     number of k points=   343  Marzari-Vanderbilt smearing, width (Ry)=  0.0200

     Number of k-points >= 100: set verbosity='high' to print them.

     Initial potential from superposition of free atoms

     starting charge   49.99176, renormalised to   51.00000
     Starting wfcs are   49 randomized atomic wfcs

     Self-consistent Calculation

[...]

     total energy              =    -470.44648331 Ry
     Harris-Foulkes estimate   =    -470.44648331 Ry
     estimated scf accuracy    <          4.9E-12 Ry

     iteration # 24     ecut=    50.00 Ry     beta= 0.60
     Davidson diagonalization with overlap
     ethr =  1.00E-13,  avg # of iterations =  1.4

     End of self-consistent calculation

     Number of k-points >= 100: set verbosity='high' to print the bands.

     the Fermi energy is    16.8103 ev

!    total energy              =    -470.44648331 Ry
     Harris-Foulkes estimate   =    -470.44648331 Ry
     estimated scf accuracy    <          4.6E-14 Ry

     The total energy is the sum of the following terms:

     one-electron contribution =     -89.67381410 Ry
     hartree contribution      =      69.46122073 Ry
     xc contribution           =     -69.87584147 Ry
     ewald contribution        =    -380.35836312 Ry
     smearing contrib. (-TS)   =       0.00031465 Ry

     convergence has been achieved in  24 iterations

     Forces acting on atoms (cartesian axes, Ry/au):

     atom    1 type  2   force =     0.00000000    0.00000000    0.00000000
     atom    2 type  1   force =     0.00000000    0.00001181    0.00001181
     atom    3 type  1   force =     0.00000000   -0.00001181   -0.00001181
     atom    4 type  1   force =     0.00000000    0.00000000    0.00000000

     Total force =     0.000024     Total SCF correction =     0.000000

     Computing stress (Cartesian axis) and pressure

          total   stress  (Ry/bohr**3)                   (kbar)     P=   -1.30
  -0.00000938   0.00000000  -0.00000000         -1.38      0.00     -0.00
   0.00000000  -0.00000854  -0.00000006          0.00     -1.26     -0.01
  -0.00000000  -0.00000006  -0.00000854         -0.00     -0.01     -1.26

     General routines

     Parallel routines

      21h

   This run was terminated on:  19:35:47  23Feb2020

   JOB DONE.