     Program PWSCF v.6.0 (svn rev. 13079) starts on 26Apr2018 at 11: 7:49

     Current dimensions of program PWSCF are:
     Max number of different atomic species (ntypx) = 10
     Max number of k-points (npk) =  40000
     Max angular momentum in pseudopotentials (lmaxx) =  3

     Subspace diagonalization in iterative solution of the eigenvalue problem:
     a serial algorithm will be used

     bravais-lattice index     =            0
     lattice parameter (alat)  =       1.8897  a.u.
     unit-cell volume          =     293.3367 (a.u.)^3
     number of atoms/cell      =            2
     number of atomic types    =            2
     number of electrons       =        25.00
     number of Kohn-Sham states=           17
     kinetic-energy cutoff     =      50.0000  Ry
     charge density cutoff     =     500.0000  Ry
     convergence threshold     =      1.0E-10
     mixing beta               =       0.6000
     number of iterations used =            8  plain     mixing
     Exchange-correlation      = SLA  PW   PBE  PBE ( 1  4  3  4 0 0)
     nstep                     =           50

     celldm(1)=   1.889726  celldm(2)=   0.000000  celldm(3)=   0.000000
     celldm(4)=   0.000000  celldm(5)=   0.000000  celldm(6)=   0.000000

     crystal axes: (cart. coord. in units of alat)
               a(1) = (  -1.758031   1.758031  -1.758031 )
               a(2) = (  -1.758031  -1.758031   1.758031 )
               a(3) = (   0.000000   3.516063   3.516063 )

     reciprocal axes: (cart. coord. in units 2 pi/alat)
               b(1) = ( -0.284409  0.142205 -0.142205 )
               b(2) = ( -0.284409 -0.142205  0.142205 )
               b(3) = (  0.000000  0.142205  0.142205 )

     PseudoPot. # 1 for Nb read from file:
     ./Nb.pbe-nsp-van.UPF
     MD5 check sum: 0a22fc7fb0ba19a08ca5db297a5d2854
     Pseudo is Ultrasoft + core correction, Zval = 13.0
     Generated by new atomic code, or converted to UPF format
     Using radial grid of  887 points,  6 beta functions with:
                l(1) =   0
                l(2) =   0
                l(3) =   1
                l(4) =   1
                l(5) =   2
                l(6) =   2
     Q(r) pseudized with  6 coefficients,  rinner =    1.000   1.000   1.000
                                                       1.000   1.000

     PseudoPot. # 2 for Ti read from file:
     ./Ti.pbe-sp-van_ak.UPF
     MD5 check sum: f98fea3e8887528921fefa5636a534ca
     Pseudo is Ultrasoft, Zval = 12.0
     Generated by new atomic code, or converted to UPF format
     Using radial grid of  851 points,  6 beta functions with:
                l(1) =   0
                l(2) =   0
                l(3) =   1
                l(4) =   1
                l(5) =   2
                l(6) =   2
     Q(r) pseudized with  8 coefficients,  rinner =    1.000   1.000   1.000
                                                       1.000   1.000

     atomic species   valence    mass     pseudopotential
        Nb            13.00    92.90638     Nb( 1.00)
        Ti            12.00    47.86700     Ti( 1.00)

      8 Sym. Ops., with inversion, found

   Cartesian axes

     site n.     atom                  positions (alat units)
         1           Ti  tau(   1) = (  -1.7580316   1.7580316   1.7580316  )
         2           Nb  tau(   2) = (  -3.5160633   3.5160633   3.5160633  )

     number of k points=   700  Marzari-Vanderbilt smearing, width (Ry)=  0.0200

     Number of k-points >= 100: set verbosity='high' to print them.

     Initial potential from superposition of free atoms

     starting charge   23.99722, renormalised to   25.00000
     Starting wfc are   23 randomized atomic wfcs

     Self-consistent Calculation

     iteration #  1     ecut=    50.00 Ry     beta=0.60
     Davidson diagonalization with overlap
     ethr =  1.00E-02,  avg # of iterations =  3.0

     total energy              =    -228.93508141 Ry
     Harris-Foulkes estimate   =    -235.60711037 Ry
     estimated scf accuracy    <       8.41066373 Ry

[...]

     End of self-consistent calculation

     Number of k-points >= 100: set verbosity='high' to print the bands.

     the Fermi energy is    12.1671 ev

!    total energy              =    -234.53591473 Ry
     Harris-Foulkes estimate   =    -234.53591473 Ry
     estimated scf accuracy    <          2.6E-11 Ry

     The total energy is the sum of the following terms:

     one-electron contribution =     -75.42099960 Ry
     hartree contribution      =      44.77910728 Ry
     xc contribution           =     -32.62202275 Ry
     ewald contribution        =    -171.27225879 Ry
     smearing contrib. (-TS)   =       0.00025914 Ry

     convergence has been achieved in  24 iterations

     Forces acting on atoms (Ry/au):

     atom    1 type  2   force =     0.00000000    0.00000000    0.00000000
     atom    2 type  1   force =    -0.00000000    0.00000000    0.00000000

     Total force =     0.000000     Total SCF correction =     0.000000

     entering subroutine stress ...

          total   stress  (Ry/bohr**3)                   (kbar)     P= -200.26
  -0.00135449   0.00000000   0.00000000       -199.25      0.00      0.00
   0.00000000  -0.00136475   0.00003970          0.00   -200.76      5.84
   0.00000000   0.00003970  -0.00136475          0.00      5.84   -200.76

     BFGS Geometry Optimization

     number of scf cycles    =   1
     number of bfgs steps    =   0

     enthalpy new            =    -234.5359147267 Ry

     new trust radius        =       0.1169201651 bohr
     new conv_thr            =            1.0E-10 Ry

     new unit-cell volume =    264.39459 a.u.^3 (    39.17924 Ang^3 )

CELL_PARAMETERS (alat=  1.88972599)
  -1.698500615   1.696304969  -1.696304969
  -1.698500615  -1.696304969   1.696304969
   0.000000000   3.399589027   3.399589027

ATOMIC_POSITIONS (angstrom)
Ti      -1.698500615   1.699794513   1.699794513
Nb      -3.397001230   3.399589027   3.399589027

     NEW-OLD atomic charge density approx. for the potential
     extrapolated charge   22.37313, renormalised to   25.00000

[...]

     iteration #  1     ecut=    50.00 Ry     beta=0.60
     Davidson diagonalization with overlap
     c_bands:  1 eigenvalues not converged
     c_bands:  1 eigenvalues not converged
     c_bands:  1 eigenvalues not converged
     c_bands:  1 eigenvalues not converged
     ethr =  1.00E-06,  avg # of iterations = 10.7

[...]

     enthalpy old            =    -234.5359147267 Ry
     enthalpy new            =    -234.5686341941 Ry

     CASE: enthalpy_new < enthalpy_old

[...]

     Threshold (ethr) on eigenvalues was too large:
     Diagonalizing with lowered threshold

     Davidson diagonalization with overlap
     ethr =  9.70E-08,  avg # of iterations =  1.1

[...]

     small trust_radius: resetting bfgs history

[...]

     number of scf cycles    =  12
     number of bfgs steps    =  11

     enthalpy old            =    -234.5813640195 Ry
     enthalpy new            =    -234.5813640226 Ry

     CASE: enthalpy_new < enthalpy_old

     Message from routine bfgs:
     history already reset at previous step: stopping
     small trust_radius: resetting bfgs history

     new trust radius        =       0.0000342312 bohr
     new conv_thr            =            1.0E-12 Ry

     new unit-cell volume =    236.85290 a.u.^3 (    35.09798 Ang^3 )

[...]

ATOMIC_POSITIONS (angstrom)
Ti      -1.631843086   1.642489505   1.642489505
Nb      -3.263686171   3.284979010   3.284979010

     NEW-OLD atomic charge density approx. for the potential
     extrapolated charge   25.00004, renormalised to   25.00000

[...]

     Threshold (ethr) on eigenvalues was too large:
     Diagonalizing with lowered threshold

     Davidson diagonalization with overlap
     ethr =  1.50E-12,  avg # of iterations =  3.9

[...]

     bfgs converged in  13 scf cycles and  12 bfgs steps
     (criteria: energy <  1.0E-10, force <  1.0E-05, cell <  1.0E-03)

     End of BFGS Geometry Optimization

     Final enthalpy =    -234.5813640247 Ry
Begin final coordinates
     new unit-cell volume =    236.85290 a.u.^3 (    35.09798 Ang^3 )

CELL_PARAMETERS (alat=  1.88972599)
  -1.631843086   1.636858813  -1.636858813
  -1.631843086  -1.636858813   1.636858813
   0.000000000   3.284979010   3.284979010

ATOMIC_POSITIONS (angstrom)
Ti      -1.631843086   1.642489505   1.642489505
Nb      -3.263686171   3.284979010   3.284979010
End final coordinates

     A final scf calculation at the relaxed structure.
     The G-vectors are recalculated for the final unit cell
     Results may differ from those at the preceding step.

   Info: using nr1, nr2, nr3 values from input

   Info: using nr1, nr2, nr3 values from input

     bravais-lattice index     =            0
     lattice parameter (alat)  =       1.8897  a.u.
     unit-cell volume          =     236.8529 (a.u.)^3
     number of atoms/cell      =            2
     number of atomic types    =            2
     number of electrons       =        25.00
     number of Kohn-Sham states=           17
     kinetic-energy cutoff     =      50.0000  Ry
     charge density cutoff     =     500.0000  Ry
     convergence threshold     =      1.0E-12
     mixing beta               =       0.6000
     number of iterations used =            8  plain     mixing
     Exchange-correlation      = SLA  PW   PBE  PBE ( 1  4  3  4 0 0)

     celldm(1)=   1.889726  celldm(2)=   0.000000  celldm(3)=   0.000000
     celldm(4)=   0.000000  celldm(5)=   0.000000  celldm(6)=   0.000000

     crystal axes: (cart. coord. in units of alat)
               a(1) = (  -1.631843   1.636859  -1.636859 )
               a(2) = (  -1.631843  -1.636859   1.636859 )
               a(3) = (   0.000000   3.284979   3.284979 )

     reciprocal axes: (cart. coord. in units 2 pi/alat)
               b(1) = ( -0.306402  0.152732 -0.152732 )
               b(2) = ( -0.306402 -0.152732  0.152732 )
               b(3) = (  0.000000  0.152208  0.152208 )

     PseudoPot. # 1 for Nb read from file:
     ./Nb.pbe-nsp-van.UPF
     MD5 check sum: 0a22fc7fb0ba19a08ca5db297a5d2854
     Pseudo is Ultrasoft + core correction, Zval = 13.0
     Generated by new atomic code, or converted to UPF format
     Using radial grid of  887 points,  6 beta functions with:
                l(1) =   0
                l(2) =   0
                l(3) =   1
                l(4) =   1
                l(5) =   2
                l(6) =   2
     Q(r) pseudized with  6 coefficients,  rinner =    1.000   1.000   1.000
                                                       1.000   1.000

     PseudoPot. # 2 for Ti read from file:
     ./Ti.pbe-sp-van_ak.UPF
     MD5 check sum: f98fea3e8887528921fefa5636a534ca
     Pseudo is Ultrasoft, Zval = 12.0
     Generated by new atomic code, or converted to UPF format
     Using radial grid of  851 points,  6 beta functions with:
                l(1) =   0
                l(2) =   0
                l(3) =   1
                l(4) =   1
                l(5) =   2
                l(6) =   2
     Q(r) pseudized with  8 coefficients,  rinner =    1.000   1.000   1.000
                                                       1.000   1.000

     atomic species   valence    mass     pseudopotential
        Nb            13.00    92.90638     Nb( 1.00)
        Ti            12.00    47.86700     Ti( 1.00)

      8 Sym. Ops., with inversion, found

   Cartesian axes

     site n.     atom                  positions (alat units)
         1           Ti  tau(   1) = (  -1.6318432   1.6424896   1.6424896  )
         2           Nb  tau(   2) = (  -3.2636864   3.2849793   3.2849793  )

     number of k points=   700  Marzari-Vanderbilt smearing, width (Ry)=  0.0200

     Number of k-points >= 100: set verbosity='high' to print them.

     Initial potential from superposition of free atoms

     starting charge   23.99722, renormalised to   25.00000
     Starting wfc are   23 randomized atomic wfcs

     Self-consistent Calculation

     iteration #  1     ecut=    50.00 Ry     beta=0.60
     Davidson diagonalization with overlap
     c_bands:  1 eigenvalues not converged
     c_bands:  1 eigenvalues not converged
     c_bands:  1 eigenvalues not converged
     c_bands:  1 eigenvalues not converged
     c_bands:  1 eigenvalues not converged
     c_bands:  1 eigenvalues not converged
     c_bands:  1 eigenvalues not converged
     c_bands:  1 eigenvalues not converged
     c_bands:  1 eigenvalues not converged
     c_bands:  1 eigenvalues not converged
     c_bands:  1 eigenvalues not converged
     ethr =  1.00E-06,  avg # of iterations =  9.9

[...]

     total energy              =    -234.58113689 Ry
     Harris-Foulkes estimate   =    -234.58113689 Ry
     estimated scf accuracy    <          1.1E-12 Ry

     iteration # 23     ecut=    50.00 Ry     beta=0.60
     Davidson diagonalization with overlap
     ethr =  1.00E-13,  avg # of iterations =  1.0

     End of self-consistent calculation

     Number of k-points >= 100: set verbosity='high' to print the bands.

     the Fermi energy is    15.7355 ev

!    total energy              =    -234.58113689 Ry
     Harris-Foulkes estimate   =    -234.58113689 Ry
     estimated scf accuracy    <          5.6E-14 Ry

     The total energy is the sum of the following terms:

     one-electron contribution =     -56.87591591 Ry
     hartree contribution      =      39.20656503 Ry
     xc contribution           =     -32.98442665 Ry
     ewald contribution        =    -183.92747347 Ry
     smearing contrib. (-TS)   =       0.00011411 Ry

     convergence has been achieved in  23 iterations

     Forces acting on atoms (Ry/au):

     atom    1 type  2   force =    -0.00000000    0.00000000    0.00000000
     atom    2 type  1   force =    -0.00000000    0.00000000    0.00000000

     Total force =     0.000000     Total SCF correction =     0.000000

     entering subroutine stress ...

          total   stress  (Ry/bohr**3)                   (kbar)     P=   -0.84
  -0.00000571   0.00000000  -0.00000000         -0.84      0.00     -0.00
  -0.00000000  -0.00000575   0.00000065         -0.00     -0.85      0.09
   0.00000000   0.00000065  -0.00000575          0.00      0.09     -0.85

     General routines

     Parallel routines

   This run was terminated on:  12:22: 2  26Apr2018

   JOB DONE.