     Program PWSCF v.6.0 (svn rev. 13079) starts on 25Apr2018 at 17:36:34

     Current dimensions of program PWSCF are:
     Max number of different atomic species (ntypx) = 10
     Max number of k-points (npk) =  40000
     Max angular momentum in pseudopotentials (lmaxx) =  3

     Subspace diagonalization in iterative solution of the eigenvalue problem:
     a serial algorithm will be used

     bravais-lattice index     =            0
     lattice parameter (alat)  =       1.8897  a.u.
     unit-cell volume          =     538.8952 (a.u.)^3
     number of atoms/cell      =            4
     number of atomic types    =            2
     number of electrons       =        50.00
     number of Kohn-Sham states=           30
     kinetic-energy cutoff     =      40.0000  Ry
     charge density cutoff     =     400.0000  Ry
     convergence threshold     =      1.0E-10
     mixing beta               =       0.6000
     number of iterations used =            8  plain     mixing
     Exchange-correlation      = SLA  PW   PBE  PBE ( 1  4  3  4 0 0)
     nstep                     =           50

     celldm(1)=   1.889726  celldm(2)=   0.000000  celldm(3)=   0.000000
     celldm(4)=   0.000000  celldm(5)=   0.000000  celldm(6)=   0.000000

     crystal axes: (cart. coord. in units of alat)
               a(1) = (   1.522502  -2.637051   0.000000 )
               a(2) = (   0.000000   0.000000  -4.972461 )
               a(3) = (   4.567506   2.637051   0.000000 )

     reciprocal axes: (cart. coord. in units 2 pi/alat)
               b(1) = (  0.164203 -0.284409  0.000000 )
               b(2) = (  0.000000  0.000000 -0.201108 )
               b(3) = (  0.164203  0.094803  0.000000 )

     PseudoPot. # 1 for Nb read from file:
     ./Nb.pbe-nsp-van.UPF
     MD5 check sum: 0a22fc7fb0ba19a08ca5db297a5d2854
     Pseudo is Ultrasoft + core correction, Zval = 13.0
     Generated by new atomic code, or converted to UPF format
     Using radial grid of  887 points,  6 beta functions with:
                l(1) =   0
                l(2) =   0
                l(3) =   1
                l(4) =   1
                l(5) =   2
                l(6) =   2
     Q(r) pseudized with  6 coefficients,  rinner =    1.000   1.000   1.000
                                                       1.000   1.000

     PseudoPot. # 2 for Ti read from file:
     ./Ti.pbe-sp-van_ak.UPF
     MD5 check sum: f98fea3e8887528921fefa5636a534ca
     Pseudo is Ultrasoft, Zval = 12.0
     Generated by new atomic code, or converted to UPF format
     Using radial grid of  851 points,  6 beta functions with:
                l(1) =   0
                l(2) =   0
                l(3) =   1
                l(4) =   1
                l(5) =   2
                l(6) =   2
     Q(r) pseudized with  8 coefficients,  rinner =    1.000   1.000   1.000
                                                       1.000   1.000

     atomic species   valence    mass     pseudopotential
        Nb            13.00    92.90638     Nb( 1.00)
        Ti            12.00    47.86700     Ti( 1.00)

      4 Sym. Ops. (no inversion) found
          (note:  4 additional sym.ops. were found but ignored
           their fractional translations are incommensurate with FFT grid)

   Cartesian axes

     site n.     atom                  positions (alat units)
         1           Ti  tau(   1) = (   3.0450042   0.0000000  -4.9724614  )
         2           Ti  tau(   2) = (   3.0450058  -1.7580350  -2.4862307  )
         3           Nb  tau(   3) = (   6.0900085   0.0000000  -4.9724614  )
         4           Nb  tau(   4) = (   4.5675079   0.8790162  -2.4862307  )

     number of k points=   360  Marzari-Vanderbilt smearing, width (Ry)=  0.0200

     Number of k-points >= 100: set verbosity='high' to print them.

     Initial potential from superposition of free atoms

     starting charge   47.99445, renormalised to   50.00000
     Starting wfc are   46 randomized atomic wfcs

     Self-consistent Calculation

     iteration #  1     ecut=    40.00 Ry     beta=0.60
     Davidson diagonalization with overlap
     ethr =  1.00E-02,  avg # of iterations =  3.2

     total energy              =    -455.39229361 Ry
     Harris-Foulkes estimate   =    -471.39840979 Ry
     estimated scf accuracy    <      20.07973594 Ry

[...]

     iteration # 16     ecut=    40.00 Ry     beta=0.60
     Davidson diagonalization with overlap
     c_bands:  1 eigenvalues not converged
     ethr =  1.11E-04,  avg # of iterations =  1.8

[...]

     End of self-consistent calculation

     Number of k-points >= 100: set verbosity='high' to print the bands.

     the Fermi energy is    13.8368 ev

!    total energy              =    -469.09338643 Ry
     Harris-Foulkes estimate   =    -469.09338643 Ry
     estimated scf accuracy    <          4.9E-11 Ry

     The total energy is the sum of the following terms:

     one-electron contribution =    -136.38480589 Ry
     hartree contribution      =      85.12471457 Ry
     xc contribution           =     -65.50245426 Ry
     ewald contribution        =    -352.32640500 Ry
     smearing contrib. (-TS)   =      -0.00443585 Ry

     convergence has been achieved in  33 iterations

     Forces acting on atoms (Ry/au):

     atom    1 type  2   force =    -0.00277213   -0.00160049    0.00000000
     atom    2 type  2   force =     0.00278664    0.00160887    0.00000000
     atom    3 type  1   force =     0.00232241    0.00134084    0.00000000
     atom    4 type  1   force =    -0.00233692   -0.00134922    0.00000000

     Total force =     0.005922     Total SCF correction =     0.000008

     entering subroutine stress ...

          total   stress  (Ry/bohr**3)                   (kbar)     P= -122.60
  -0.00088789   0.00001824   0.00000000       -130.61      2.68      0.00
   0.00001824  -0.00090895   0.00000000          2.68   -133.71      0.00
   0.00000000   0.00000000  -0.00070342          0.00      0.00   -103.48

     BFGS Geometry Optimization

     number of scf cycles    =   1
     number of bfgs steps    =   0

     enthalpy new            =    -469.0933864318 Ry

     new trust radius        =       0.1055238644 bohr
     new conv_thr            =            1.0E-10 Ry

     new unit-cell volume =    505.90330 a.u.^3 (    74.96713 Ang^3 )

CELL_PARAMETERS (alat=  1.88972599)
   1.487504161  -2.576432969   0.000000000
   0.000000000   0.000000000  -4.885017983
   4.467321938   2.579209709   0.000000000

ATOMIC_POSITIONS (angstrom)
Ti       2.975978280   0.000560005  -4.885017983
Ti       2.978055243  -1.715864557  -2.442508991
Nb       5.956028107   0.003470719  -4.885017983
Nb       4.465312332   0.860425765  -2.442508991

     NEW-OLD atomic charge density approx. for the potential

     Check: negative/imaginary core charge=   -0.000001    0.000000
     extrapolated charge   46.87010, renormalised to   50.00000

[...]

     enthalpy old            =    -469.0933864318 Ry
     enthalpy new            =    -469.1141715439 Ry

     CASE: enthalpy_new < enthalpy_old

[...]

     NEW-OLD atomic charge density approx. for the potential
     extrapolated charge   49.96608, renormalised to   50.00000

[...]

     Threshold (ethr) on eigenvalues was too large:
     Diagonalizing with lowered threshold

     Davidson diagonalization with overlap
     ethr =  9.20E-08,  avg # of iterations =  1.6

[...]

     WARNING: bfgs curvature condition failed, Theta= 0.831
     new trust radius        =       0.0069539492 bohr
     new conv_thr            =            1.0E-10 Ry

[...]

     NEW-OLD atomic charge density approx. for the potential

     Check: negative/imaginary core charge=   -0.000001    0.000000
     extrapolated charge   49.97615, renormalised to   50.00000

[...]

     WARNING: bfgs curvature condition failed, Theta= 0.844
     new trust radius        =       0.0126706580 bohr
     new conv_thr            =            1.0E-10 Ry

[...]

     Total force =     0.000019     Total SCF correction =     0.000004
     SCF correction compared to forces is large: reduce conv_thr to get better values

[...]

     small trust_radius: resetting bfgs history

[...]

     number of scf cycles    =  35
     number of bfgs steps    =  34

     enthalpy old            =    -469.1405811309 Ry
     enthalpy new            =    -469.1405811310 Ry

     CASE: enthalpy_new < enthalpy_old

     WARNING: bfgs curvature condition failed, Theta= 0.989
     Message from routine bfgs:
     history already reset at previous step: stopping
     small trust_radius: resetting bfgs history

     new trust radius        =       0.0000062045 bohr
     new conv_thr            =            1.0E-12 Ry

     new unit-cell volume =    479.80741 a.u.^3 (    71.10012 Ang^3 )

[...]

ATOMIC_POSITIONS (angstrom)
Ti       3.150825131   0.232379646  -4.748202032
Ti       2.842497137  -1.532385388  -2.374101016
Nb       6.287047764   0.456328535  -4.748202032
Nb       4.424760550   0.967885083  -2.374101016

     NEW-OLD atomic charge density approx. for the potential
     extrapolated charge   50.00001, renormalised to   50.00000

[...]

     Threshold (ethr) on eigenvalues was too large:
     Diagonalizing with lowered threshold

     Davidson diagonalization with overlap
     ethr =  1.58E-13,  avg # of iterations =  4.0

[...]

     Total force =     0.000004     Total SCF correction =     0.000002
     SCF correction compared to forces is large: reduce conv_thr to get better values

[...]

     bfgs converged in  36 scf cycles and  35 bfgs steps
     (criteria: energy <  1.0E-10, force <  1.0E-05, cell <  1.0E-03)

     End of BFGS Geometry Optimization

     Final enthalpy =    -469.1405811311 Ry
Begin final coordinates
     new unit-cell volume =    479.80741 a.u.^3 (    71.10012 Ang^3 )

CELL_PARAMETERS (alat=  1.88972599)
   1.374165876  -2.380125310   0.000000000
   0.000000000   0.000000000  -4.748202032
   4.718486252   2.724219479   0.000000000

ATOMIC_POSITIONS (angstrom)
Ti       3.150825131   0.232379646  -4.748202032
Ti       2.842497137  -1.532385388  -2.374101016
Nb       6.287047764   0.456328535  -4.748202032
Nb       4.424760550   0.967885083  -2.374101016
End final coordinates

     A final scf calculation at the relaxed structure.
     The G-vectors are recalculated for the final unit cell
     Results may differ from those at the preceding step.

   Info: using nr1, nr2, nr3 values from input

   Info: using nr1, nr2, nr3 values from input

     bravais-lattice index     =            0
     lattice parameter (alat)  =       1.8897  a.u.
     unit-cell volume          =     479.8074 (a.u.)^3
     number of atoms/cell      =            4
     number of atomic types    =            2
     number of electrons       =        50.00
     number of Kohn-Sham states=           30
     kinetic-energy cutoff     =      40.0000  Ry
     charge density cutoff     =     400.0000  Ry
     convergence threshold     =      1.0E-12
     mixing beta               =       0.6000
     number of iterations used =            8  plain     mixing
     Exchange-correlation      = SLA  PW   PBE  PBE ( 1  4  3  4 0 0)

     celldm(1)=   1.889726  celldm(2)=   0.000000  celldm(3)=   0.000000
     celldm(4)=   0.000000  celldm(5)=   0.000000  celldm(6)=   0.000000

     crystal axes: (cart. coord. in units of alat)
               a(1) = (   1.374166  -2.380125   0.000000 )
               a(2) = (   0.000000   0.000000  -4.748202 )
               a(3) = (   4.718486   2.724219   0.000000 )

     reciprocal axes: (cart. coord. in units 2 pi/alat)
               b(1) = (  0.181929 -0.315109  0.000000 )
               b(2) = (  0.000000  0.000000 -0.210606 )
               b(3) = (  0.158949  0.091769  0.000000 )

     PseudoPot. # 1 for Nb read from file:
     ./Nb.pbe-nsp-van.UPF
     MD5 check sum: 0a22fc7fb0ba19a08ca5db297a5d2854
     Pseudo is Ultrasoft + core correction, Zval = 13.0
     Generated by new atomic code, or converted to UPF format
     Using radial grid of  887 points,  6 beta functions with:
                l(1) =   0
                l(2) =   0
                l(3) =   1
                l(4) =   1
                l(5) =   2
                l(6) =   2
     Q(r) pseudized with  6 coefficients,  rinner =    1.000   1.000   1.000
                                                       1.000   1.000

     PseudoPot. # 2 for Ti read from file:
     ./Ti.pbe-sp-van_ak.UPF
     MD5 check sum: f98fea3e8887528921fefa5636a534ca
     Pseudo is Ultrasoft, Zval = 12.0
     Generated by new atomic code, or converted to UPF format
     Using radial grid of  851 points,  6 beta functions with:
                l(1) =   0
                l(2) =   0
                l(3) =   1
                l(4) =   1
                l(5) =   2
                l(6) =   2
     Q(r) pseudized with  8 coefficients,  rinner =    1.000   1.000   1.000
                                                       1.000   1.000

     atomic species   valence    mass     pseudopotential
        Nb            13.00    92.90638     Nb( 1.00)
        Ti            12.00    47.86700     Ti( 1.00)

      4 Sym. Ops. (no inversion) found
          (note:  4 additional sym.ops. were found but ignored
           their fractional translations are incommensurate with FFT grid)

   Cartesian axes

     site n.     atom                  positions (alat units)
         1           Ti  tau(   1) = (   3.1508254   0.2323797  -4.7482024  )
         2           Ti  tau(   2) = (   2.8424974  -1.5323855  -2.3741012  )
         3           Nb  tau(   3) = (   6.2870482   0.4563286  -4.7482024  )
         4           Nb  tau(   4) = (   4.4247609   0.9678852  -2.3741012  )

     number of k points=   360  Marzari-Vanderbilt smearing, width (Ry)=  0.0200

     Number of k-points >= 100: set verbosity='high' to print them.

     Initial potential from superposition of free atoms

     starting charge   47.99445, renormalised to   50.00000
     Starting wfc are   46 randomized atomic wfcs

     Self-consistent Calculation

[...]

     iteration # 20     ecut=    40.00 Ry     beta=0.60
     Davidson diagonalization with overlap
     c_bands:  1 eigenvalues not converged
     ethr =  8.11E-08,  avg # of iterations =  2.5

[...]

     total energy              =    -469.13857546 Ry
     Harris-Foulkes estimate   =    -469.13857546 Ry
     estimated scf accuracy    <          1.4E-11 Ry

     iteration # 30     ecut=    40.00 Ry     beta=0.60
     Davidson diagonalization with overlap
     ethr =  1.00E-13,  avg # of iterations =  1.0

     End of self-consistent calculation

     Number of k-points >= 100: set verbosity='high' to print the bands.

     the Fermi energy is    15.6566 ev

!    total energy              =    -469.13857546 Ry
     Harris-Foulkes estimate   =    -469.13857546 Ry
     estimated scf accuracy    <          5.2E-13 Ry

     The total energy is the sum of the following terms:

     one-electron contribution =    -116.98231678 Ry
     hartree contribution      =      79.49540604 Ry
     xc contribution           =     -65.92252951 Ry
     ewald contribution        =    -365.73061741 Ry
     smearing contrib. (-TS)   =       0.00148221 Ry

     convergence has been achieved in  30 iterations

     Forces acting on atoms (Ry/au):

     atom    1 type  2   force =     0.00002644    0.00001526    0.00000000
     atom    2 type  2   force =    -0.00001768   -0.00001021    0.00000000
     atom    3 type  1   force =     0.00000195    0.00000112    0.00000000
     atom    4 type  1   force =    -0.00001071   -0.00000618    0.00000000

     Total force =     0.000039     Total SCF correction =     0.000001

     entering subroutine stress ...

          total   stress  (Ry/bohr**3)                   (kbar)     P=   -2.63
  -0.00000808   0.00001395   0.00000000         -1.19      2.05      0.00
   0.00001395  -0.00002419   0.00000000          2.05     -3.56      0.00
   0.00000000   0.00000000  -0.00002134          0.00      0.00     -3.14

     General routines

     Parallel routines

   This run was terminated on:  23:56:19  25Apr2018

   JOB DONE.