     Program PWSCF v.6.3MaX starts on 21Feb2020 at 15:57:33

     R & G space division:  proc/nbgrp/npool/nimage =       6
     Waiting for input...
     Reading input from standard input

     Current dimensions of program PWSCF are:
     Max number of different atomic species (ntypx) = 10
     Max number of k-points (npk) =  40000
     Max angular momentum in pseudopotentials (lmaxx) =  3
     Message from routine iosys:
     minimal I/O required, wf_collect reset to FALSE

     Subspace diagonalization in iterative solution of the eigenvalue problem:
     a serial algorithm will be used

     bravais-lattice index     =            0
     lattice parameter (alat)  =       1.8897  a.u.
     unit-cell volume          =     808.3427 (a.u.)^3
     number of atoms/cell      =            6
     number of atomic types    =            2
     number of electrons       =        76.00
     number of Kohn-Sham states=           46
     kinetic-energy cutoff     =      40.0000  Ry
     charge density cutoff     =     400.0000  Ry
     convergence threshold     =      1.0E-10
     mixing beta               =       0.6000
     number of iterations used =            8  plain     mixing
     Exchange-correlation      = SLA PW PBE PBE ( 1  4  3  4 0 0)
     nstep                     =           50

     celldm(1)=   1.889726  celldm(2)=   0.000000  celldm(3)=   0.000000
     celldm(4)=   0.000000  celldm(5)=   0.000000  celldm(6)=   0.000000

     crystal axes: (cart. coord. in units of alat)
               a(1) = (  -3.045004   0.000000   4.972461 )
               a(2) = (  -1.522502   2.637051   4.972461 )
               a(3) = (  -4.567506   2.637051  -4.972461 )

     reciprocal axes: (cart. coord. in units 2 pi/alat)
               b(1) = ( -0.218938 -0.252808  0.067036 )
               b(2) = (  0.109469  0.316010  0.067036 )
               b(3) = ( -0.109469  0.063202 -0.067036 )

     PseudoPot. # 1 for Nb read from file:
     ./Nb.pbe-nsp-van.UPF
     MD5 check sum: 0a22fc7fb0ba19a08ca5db297a5d2854
     Pseudo is Ultrasoft + core correction, Zval = 13.0
     Generated by new atomic code, or converted to UPF format
     Using radial grid of  887 points,  6 beta functions with:
                l(1) =   0
                l(2) =   0
                l(3) =   1
                l(4) =   1
                l(5) =   2
                l(6) =   2
     Q(r) pseudized with  6 coefficients,  rinner =    1.000   1.000   1.000
                                                       1.000   1.000

     PseudoPot. # 2 for Ti read from file:
     ./Ti.pbe-sp-van_ak.UPF
     MD5 check sum: f98fea3e8887528921fefa5636a534ca
     Pseudo is Ultrasoft, Zval = 12.0
     Generated by new atomic code, or converted to UPF format
     Using radial grid of  851 points,  6 beta functions with:
                l(1) =   0
                l(2) =   0
                l(3) =   1
                l(4) =   1
                l(5) =   2
                l(6) =   2
     Q(r) pseudized with  8 coefficients,  rinner =    1.000   1.000   1.000
                                                       1.000   1.000

     atomic species   valence    mass     pseudopotential
        Nb            13.00    92.90638     Nb( 1.00)
        Ti            12.00    47.86700     Ti( 1.00)

      2 Sym. Ops. (no inversion) found

   Cartesian axes

     site n.     atom                  positions (alat units)
         1           Ti  tau(   1) = (  -4.5675063   2.6370512   0.0000000  )
         2           Nb  tau(   2) = (  -6.0900069   3.5160674   2.4862307  )
         3           Nb  tau(   3) = (  -4.5675063   2.6370512   4.9724614  )
         4           Ti  tau(   4) = (  -6.0900069   3.5160674   7.4586921  )
         5           Nb  tau(   5) = (  -9.1350127   5.2741024   4.9724614  )
         6           Nb  tau(   6) = (  -1.5225006   0.8790162   2.4862307  )

     number of k points=   398  Marzari-Vanderbilt smearing, width (Ry)=  0.0200

     Number of k-points >= 100: set verbosity='high' to print them.

     Initial potential from superposition of free atoms

     starting charge   73.98898, renormalised to   76.00000
     Starting wfcs are   72 randomized atomic wfcs

     Self-consistent Calculation

     iteration #  1     ecut=    40.00 Ry     beta= 0.60
     Davidson diagonalization with overlap
     ethr =  1.00E-02,  avg # of iterations =  2.9

     total energy              =    -651.58015796 Ry
     Harris-Foulkes estimate   =    -710.03823693 Ry
     estimated scf accuracy    <      72.43990223 Ry

[...]

     End of self-consistent calculation

     Number of k-points >= 100: set verbosity='high' to print the bands.

     the Fermi energy is    14.6565 ev

!    total energy              =    -704.90125662 Ry
     Harris-Foulkes estimate   =    -704.90125662 Ry
     estimated scf accuracy    <          9.8E-11 Ry

     The total energy is the sum of the following terms:

     one-electron contribution =    -177.75050917 Ry
     hartree contribution      =     117.60510877 Ry
     xc contribution           =    -102.16510692 Ry
     ewald contribution        =    -542.58677589 Ry
     smearing contrib. (-TS)   =      -0.00397342 Ry

     convergence has been achieved in  37 iterations

     Forces acting on atoms (cartesian axes, Ry/au):

     atom    1 type  2   force =     0.00288741   -0.00166705    0.00805201
     atom    2 type  1   force =     0.00251983   -0.00145482    0.00515003
     atom    3 type  1   force =    -0.00251851    0.00145406   -0.00514971
     atom    4 type  2   force =    -0.00288728    0.00166697   -0.00805235
     atom    5 type  1   force =    -0.00194610    0.00112358   -0.00634769
     atom    6 type  1   force =     0.00194466   -0.00112275    0.00634771

     Total force =     0.017679     Total SCF correction =     0.000044

     Computing stress (Cartesian axis) and pressure

          total   stress  (Ry/bohr**3)                   (kbar)     P= -117.23
  -0.00088494  -0.00002568   0.00000601       -130.18     -3.78      0.88
  -0.00002568  -0.00091459  -0.00000347         -3.78   -134.54     -0.51
   0.00000601  -0.00000347  -0.00059123          0.88     -0.51    -86.97

     BFGS Geometry Optimization

     number of scf cycles    =   1
     number of bfgs steps    =   0

     enthalpy new            =    -704.9012566242 Ry

     new trust radius        =       0.1300680064 bohr
     new conv_thr            =            1.0E-10 Ry

     new unit-cell volume =    760.96880 a.u.^3 (   112.76394 Ang^3 )
     density =      6.88224 g/cm^3

CELL_PARAMETERS (alat=  1.88972599)
  -2.976890671   0.001523551   4.898506985
  -1.489764769   2.577301355   4.898506985
  -4.468896297   2.580118665  -4.899879226

ATOMIC_POSITIONS (angstrom)
Ti      -4.466653989   2.578824068   0.003283437
Nb      -5.955852656   3.438613381   2.450947693
Nb      -4.468706550   2.580009115   4.895364475
Ti      -5.957905831   3.439798783   7.343028383
Nb      -8.936559673   5.159525503   4.893825135
Nb      -1.488000959   0.859097817   2.452486877

     NEW-OLD atomic charge density approx. for the potential

     Check: negative/imaginary core charge=   -0.000001    0.000000
     extrapolated charge   71.39383, renormalised to   76.00000

[...]

     iteration #  1     ecut=    40.00 Ry     beta= 0.60
     Davidson diagonalization with overlap
     c_bands:  1 eigenvalues not converged
     c_bands:  1 eigenvalues not converged
     c_bands:  1 eigenvalues not converged
     c_bands:  1 eigenvalues not converged
     c_bands:  1 eigenvalues not converged
     c_bands:  1 eigenvalues not converged
     c_bands:  1 eigenvalues not converged
     c_bands:  1 eigenvalues not converged
     c_bands:  1 eigenvalues not converged
     c_bands:  1 eigenvalues not converged
     c_bands:  1 eigenvalues not converged
     c_bands:  1 eigenvalues not converged
     c_bands:  1 eigenvalues not converged
     c_bands:  1 eigenvalues not converged
     c_bands:  1 eigenvalues not converged
     c_bands:  1 eigenvalues not converged
     c_bands:  1 eigenvalues not converged
     c_bands:  1 eigenvalues not converged
     c_bands:  1 eigenvalues not converged
     c_bands:  1 eigenvalues not converged
     c_bands:  1 eigenvalues not converged
     c_bands:  1 eigenvalues not converged
     c_bands:  2 eigenvalues not converged
     c_bands:  1 eigenvalues not converged
     c_bands:  1 eigenvalues not converged
     c_bands:  1 eigenvalues not converged
     c_bands:  1 eigenvalues not converged
     c_bands:  2 eigenvalues not converged
     c_bands:  1 eigenvalues not converged
     c_bands:  1 eigenvalues not converged
     c_bands:  1 eigenvalues not converged
     c_bands:  1 eigenvalues not converged
     c_bands:  1 eigenvalues not converged
     c_bands:  1 eigenvalues not converged
     c_bands:  1 eigenvalues not converged
     c_bands:  1 eigenvalues not converged
     c_bands:  1 eigenvalues not converged
     c_bands:  1 eigenvalues not converged
     c_bands:  1 eigenvalues not converged
     c_bands:  1 eigenvalues not converged
     c_bands:  1 eigenvalues not converged
     c_bands:  1 eigenvalues not converged
     c_bands:  1 eigenvalues not converged
     c_bands:  1 eigenvalues not converged
     c_bands:  1 eigenvalues not converged
     c_bands:  1 eigenvalues not converged
     c_bands:  2 eigenvalues not converged
     c_bands:  1 eigenvalues not converged
     c_bands:  1 eigenvalues not converged
     c_bands:  1 eigenvalues not converged
     c_bands:  1 eigenvalues not converged
     c_bands:  1 eigenvalues not converged
     c_bands:  1 eigenvalues not converged
     c_bands:  1 eigenvalues not converged
     c_bands:  1 eigenvalues not converged
     c_bands:  1 eigenvalues not converged
     c_bands:  1 eigenvalues not converged
     c_bands:  1 eigenvalues not converged
     c_bands:  1 eigenvalues not converged
     c_bands:  1 eigenvalues not converged
[...]
     c_bands:  1 eigenvalues not converged
     c_bands:  1 eigenvalues not converged
     c_bands:  1 eigenvalues not converged
     c_bands:  1 eigenvalues not converged
     c_bands:  1 eigenvalues not converged
     c_bands:  1 eigenvalues not converged
     c_bands:  1 eigenvalues not converged
     c_bands:  1 eigenvalues not converged
     c_bands:  1 eigenvalues not converged
     c_bands:  1 eigenvalues not converged
     c_bands:  1 eigenvalues not converged
     c_bands:  2 eigenvalues not converged
     c_bands:  1 eigenvalues not converged
     c_bands:  1 eigenvalues not converged
     c_bands:  1 eigenvalues not converged
     ethr =  1.00E-06,  avg # of iterations = 16.8

[...]

     enthalpy old            =    -704.9012566242 Ry
     enthalpy new            =    -704.9301138762 Ry

     CASE: enthalpy_new < enthalpy_old

[...]

     WARNING: bfgs curvature condition failed, Theta= 0.916
     new trust radius        =       0.0512279021 bohr
     new conv_thr            =            1.0E-10 Ry

[...]

     NEW-OLD atomic charge density approx. for the potential

     Check: negative/imaginary core charge=   -0.000001    0.000000
     extrapolated charge   76.15366, renormalised to   76.00000

[...]

     NEW-OLD atomic charge density approx. for the potential
     extrapolated charge   76.36303, renormalised to   76.00000

[...]

     WARNING: bfgs curvature condition failed, Theta= 0.758
     new trust radius        =       0.0249979991 bohr
     new conv_thr            =            1.0E-10 Ry

[...]

     Threshold (ethr) on eigenvalues was too large:
     Diagonalizing with lowered threshold

     Davidson diagonalization with overlap
     ethr =  1.09E-08,  avg # of iterations =  2.8

[...]

     Total force =     0.000090     Total SCF correction =     0.000015
     SCF correction compared to forces is large: reduce conv_thr to get better values

[...]

     small trust_radius: resetting bfgs history

[...]

     Total force =     0.000019     Total SCF correction =     0.000002
     SCF correction compared to forces is large: reduce conv_thr to get better values

[...]

     number of scf cycles    =  48
     number of bfgs steps    =  47

     enthalpy old            =    -704.9748234545 Ry
     enthalpy new            =    -704.9748234551 Ry

     CASE: enthalpy_new < enthalpy_old

     Message from routine bfgs:
     history already reset at previous step: stopping
     small trust_radius: resetting bfgs history

     new trust radius        =       0.0000124130 bohr
     new conv_thr            =            1.0E-12 Ry

     new unit-cell volume =    729.01444 a.u.^3 (   108.02879 Ang^3 )
     density =      7.18391 g/cm^3

[...]

ATOMIC_POSITIONS (angstrom)
Ti      -4.862586178   2.807415236   0.158641585
Nb      -6.069776978   3.504387208   2.576960706
Nb      -4.858140794   2.804848817   4.962590870
Ti      -6.065330244   3.501820010   7.380907612
Nb      -9.551217236   5.514397578   5.063018030
Nb      -1.376704162   0.794840541   2.476541378

     NEW-OLD atomic charge density approx. for the potential
     extrapolated charge   76.00010, renormalised to   76.00000

[...]

     Threshold (ethr) on eigenvalues was too large:
     Diagonalizing with lowered threshold

     Davidson diagonalization with overlap
     ethr =  8.83E-13,  avg # of iterations =  3.4

[...]

     bfgs converged in  49 scf cycles and  48 bfgs steps
     (criteria: energy <  1.0E-10 Ry, force <  1.0E-05Ry/Bohr, cell <  1.0E-03kbar)

     End of BFGS Geometry Optimization

     Final enthalpy =    -704.9748234554 Ry
Begin final coordinates
     new unit-cell volume =    729.01444 a.u.^3 (   108.02879 Ang^3 )
     density =      7.18391 g/cm^3

CELL_PARAMETERS (alat=  1.88972599)
  -2.958188611   0.136365370   4.891366650
  -1.597190114   2.493683843   4.891366695
  -4.838360597   2.793428467  -4.699521320

ATOMIC_POSITIONS (angstrom)
Ti      -4.862586178   2.807415236   0.158641585
Nb      -6.069776978   3.504387208   2.576960706
Nb      -4.858140794   2.804848817   4.962590870
Ti      -6.065330244   3.501820010   7.380907612
Nb      -9.551217236   5.514397578   5.063018030
Nb      -1.376704162   0.794840541   2.476541378
End final coordinates

     A final scf calculation at the relaxed structure.
     The G-vectors are recalculated for the final unit cell
     Results may differ from those at the preceding step.

     bravais-lattice index     =            0
     lattice parameter (alat)  =       1.8897  a.u.
     unit-cell volume          =     729.0144 (a.u.)^3
     number of atoms/cell      =            6
     number of atomic types    =            2
     number of electrons       =        76.00
     number of Kohn-Sham states=           46
     kinetic-energy cutoff     =      40.0000  Ry
     charge density cutoff     =     400.0000  Ry
     convergence threshold     =      1.0E-12
     mixing beta               =       0.6000
     number of iterations used =            8  plain     mixing
     Exchange-correlation      = SLA PW PBE PBE ( 1  4  3  4 0 0)

     celldm(1)=   1.889726  celldm(2)=   0.000000  celldm(3)=   0.000000
     celldm(4)=   0.000000  celldm(5)=   0.000000  celldm(6)=   0.000000

     crystal axes: (cart. coord. in units of alat)
               a(1) = (  -2.958189   0.136365   4.891367 )
               a(2) = (  -1.597190   2.493684   4.891367 )
               a(3) = (  -4.838361   2.793428  -4.699521 )

     reciprocal axes: (cart. coord. in units 2 pi/alat)
               b(1) = ( -0.234963 -0.288555  0.070386 )
               b(2) = (  0.132414  0.347762  0.070386 )
               b(3) = ( -0.106735  0.061624 -0.066269 )

     PseudoPot. # 1 for Nb read from file:
     ./Nb.pbe-nsp-van.UPF
     MD5 check sum: 0a22fc7fb0ba19a08ca5db297a5d2854
     Pseudo is Ultrasoft + core correction, Zval = 13.0
     Generated by new atomic code, or converted to UPF format
     Using radial grid of  887 points,  6 beta functions with:
                l(1) =   0
                l(2) =   0
                l(3) =   1
                l(4) =   1
                l(5) =   2
                l(6) =   2
     Q(r) pseudized with  6 coefficients,  rinner =    1.000   1.000   1.000
                                                       1.000   1.000

     PseudoPot. # 2 for Ti read from file:
     ./Ti.pbe-sp-van_ak.UPF
     MD5 check sum: f98fea3e8887528921fefa5636a534ca
     Pseudo is Ultrasoft, Zval = 12.0
     Generated by new atomic code, or converted to UPF format
     Using radial grid of  851 points,  6 beta functions with:
                l(1) =   0
                l(2) =   0
                l(3) =   1
                l(4) =   1
                l(5) =   2
                l(6) =   2
     Q(r) pseudized with  8 coefficients,  rinner =    1.000   1.000   1.000
                                                       1.000   1.000

     atomic species   valence    mass     pseudopotential
        Nb            13.00    92.90638     Nb( 1.00)
        Ti            12.00    47.86700     Ti( 1.00)

      2 Sym. Ops. (no inversion) found

   Cartesian axes

     site n.     atom                  positions (alat units)
         1           Ti  tau(   1) = (  -4.8625865   2.8074154   0.1586416  )
         2           Nb  tau(   2) = (  -6.0697774   3.5043875   2.5769609  )
         3           Nb  tau(   3) = (  -4.8581412   2.8048490   4.9625912  )
         4           Ti  tau(   4) = (  -6.0653307   3.5018203   7.3809082  )
         5           Nb  tau(   5) = (  -9.5512180   5.5143980   5.0630184  )
         6           Nb  tau(   6) = (  -1.3767043   0.7948406   2.4765416  )

     number of k points=   398  Marzari-Vanderbilt smearing, width (Ry)=  0.0200

     Number of k-points >= 100: set verbosity='high' to print them.

     Check: negative/imaginary core charge=   -0.000001    0.000000

     Initial potential from superposition of free atoms

     starting charge   73.98898, renormalised to   76.00000
     Starting wfcs are   72 randomized atomic wfcs

     Self-consistent Calculation

[...]

     iteration # 21     ecut=    40.00 Ry     beta= 0.60
     Davidson diagonalization with overlap
     c_bands:  2 eigenvalues not converged
     ethr =  8.55E-06,  avg # of iterations =  5.4

[...]

     total energy              =    -704.97272152 Ry
     Harris-Foulkes estimate   =    -704.97272152 Ry
     estimated scf accuracy    <          1.4E-12 Ry

     iteration # 38     ecut=    40.00 Ry     beta= 0.60
     Davidson diagonalization with overlap
     ethr =  1.00E-13,  avg # of iterations =  1.0

     End of self-consistent calculation

     Number of k-points >= 100: set verbosity='high' to print the bands.

     the Fermi energy is    16.3765 ev

!    total energy              =    -704.97272152 Ry
     Harris-Foulkes estimate   =    -704.97272152 Ry
     estimated scf accuracy    <          4.7E-14 Ry

     The total energy is the sum of the following terms:

     one-electron contribution =    -151.94339472 Ry
     hartree contribution      =     110.42863355 Ry
     xc contribution           =    -102.78177169 Ry
     ewald contribution        =    -560.67679061 Ry
     smearing contrib. (-TS)   =       0.00060195 Ry

     convergence has been achieved in  38 iterations

     Forces acting on atoms (cartesian axes, Ry/au):

     atom    1 type  2   force =    -0.00005056    0.00002919    0.00000189
     atom    2 type  1   force =     0.00003032   -0.00001751   -0.00003753
     atom    3 type  1   force =    -0.00003046    0.00001759    0.00003769
     atom    4 type  2   force =     0.00005032   -0.00002905   -0.00000125
     atom    5 type  1   force =     0.00000529   -0.00000305   -0.00001339
     atom    6 type  1   force =    -0.00000492    0.00000284    0.00001259

     Total force =     0.000112     Total SCF correction =     0.000001

     Computing stress (Cartesian axis) and pressure

          total   stress  (Ry/bohr**3)                   (kbar)     P=   -1.18
  -0.00000234  -0.00000956  -0.00000017         -0.34     -1.41     -0.03
  -0.00000956  -0.00001337   0.00000010         -1.41     -1.97      0.01
  -0.00000017   0.00000010  -0.00000844         -0.03      0.01     -1.24

     General routines

     Parallel routines

      50h

   This run was terminated on:   3:47:47  22Feb2020

   JOB DONE.