     Program PWSCF v.6.3MaX starts on 11Feb2020 at 10:37:15

     R & G space division:  proc/nbgrp/npool/nimage =       4
     Waiting for input...
     Reading input from standard input

     Current dimensions of program PWSCF are:
     Max number of different atomic species (ntypx) = 10
     Max number of k-points (npk) =  40000
     Max angular momentum in pseudopotentials (lmaxx) =  3
     Message from routine iosys:
     minimal I/O required, wf_collect reset to FALSE

     Subspace diagonalization in iterative solution of the eigenvalue problem:
     a serial algorithm will be used

     bravais-lattice index     =            0
     lattice parameter (alat)  =       1.8897  a.u.
     unit-cell volume          =     808.3427 (a.u.)^3
     number of atoms/cell      =            6
     number of atomic types    =            2
     number of electrons       =        76.00
     number of Kohn-Sham states=           46
     kinetic-energy cutoff     =      40.0000  Ry
     charge density cutoff     =     400.0000  Ry
     convergence threshold     =      1.0E-10
     mixing beta               =       0.6000
     number of iterations used =            8  plain     mixing
     Exchange-correlation      = SLA PW PBE PBE ( 1  4  3  4 0 0)
     nstep                     =           50

     celldm(1)=   1.889726  celldm(2)=   0.000000  celldm(3)=   0.000000
     celldm(4)=   0.000000  celldm(5)=   0.000000  celldm(6)=   0.000000

     crystal axes: (cart. coord. in units of alat)
               a(1) = (   4.567506  -2.637051   0.000000 )
               a(2) = (  -4.567506  -2.637051   0.000000 )
               a(3) = (   0.000000   0.000000  -4.972461 )

     reciprocal axes: (cart. coord. in units 2 pi/alat)
               b(1) = (  0.109469 -0.189606  0.000000 )
               b(2) = ( -0.109469 -0.189606  0.000000 )
               b(3) = (  0.000000  0.000000 -0.201108 )

     PseudoPot. # 1 for Nb read from file:
     ./Nb.pbe-nsp-van.UPF
     MD5 check sum: 0a22fc7fb0ba19a08ca5db297a5d2854
     Pseudo is Ultrasoft + core correction, Zval = 13.0
     Generated by new atomic code, or converted to UPF format
     Using radial grid of  887 points,  6 beta functions with:
                l(1) =   0
                l(2) =   0
                l(3) =   1
                l(4) =   1
                l(5) =   2
                l(6) =   2
     Q(r) pseudized with  6 coefficients,  rinner =    1.000   1.000   1.000
                                                       1.000   1.000

     PseudoPot. # 2 for Ti read from file:
     ./Ti.pbe-sp-van_ak.UPF
     MD5 check sum: f98fea3e8887528921fefa5636a534ca
     Pseudo is Ultrasoft, Zval = 12.0
     Generated by new atomic code, or converted to UPF format
     Using radial grid of  851 points,  6 beta functions with:
                l(1) =   0
                l(2) =   0
                l(3) =   1
                l(4) =   1
                l(5) =   2
                l(6) =   2
     Q(r) pseudized with  8 coefficients,  rinner =    1.000   1.000   1.000
                                                       1.000   1.000

     atomic species   valence    mass     pseudopotential
        Nb            13.00    92.90638     Nb( 1.00)
        Ti            12.00    47.86700     Ti( 1.00)

      4 Sym. Ops. (no inversion) found
          (note:  4 additional sym.ops. were found but ignored
           their fractional translations are incommensurate with FFT grid)

   Cartesian axes

     site n.     atom                  positions (alat units)
         1           Ti  tau(   1) = (   0.0000000  -5.2741024  -4.9724614  )
         2           Ti  tau(   2) = (   0.0000015  -1.7580350  -2.4862307  )
         3           Nb  tau(   3) = (  -1.5225021  -2.6370512  -4.9724614  )
         4           Nb  tau(   4) = (  -1.5225006  -4.3950862  -2.4862307  )
         5           Nb  tau(   5) = (   1.5225021  -2.6370512  -4.9724614  )
         6           Nb  tau(   6) = (   1.5225036  -4.3950862  -2.4862307  )

     number of k points=   252  Marzari-Vanderbilt smearing, width (Ry)=  0.0200

     Number of k-points >= 100: set verbosity='high' to print them.

     Check: negative/imaginary core charge=   -0.000001    0.000000

     Initial potential from superposition of free atoms

     starting charge   73.98898, renormalised to   76.00000
     Starting wfcs are   72 randomized atomic wfcs

     Self-consistent Calculation

     iteration #  1     ecut=    40.00 Ry     beta= 0.60
     Davidson diagonalization with overlap
     ethr =  1.00E-02,  avg # of iterations =  2.5

     total energy              =    -680.08029813 Ry
     Harris-Foulkes estimate   =    -707.62649583 Ry
     estimated scf accuracy    <      34.68634332 Ry

[...]

     End of self-consistent calculation

     Number of k-points >= 100: set verbosity='high' to print the bands.

     the Fermi energy is    14.6620 ev

!    total energy              =    -704.90155446 Ry
     Harris-Foulkes estimate   =    -704.90155446 Ry
     estimated scf accuracy    <          3.5E-11 Ry

     The total energy is the sum of the following terms:

     one-electron contribution =    -177.52275965 Ry
     hartree contribution      =     117.49758645 Ry
     xc contribution           =    -102.16161366 Ry
     ewald contribution        =    -542.70967997 Ry
     smearing contrib. (-TS)   =      -0.00508763 Ry

     convergence has been achieved in  27 iterations

     Forces acting on atoms (cartesian axes, Ry/au):

     atom    1 type  2   force =     0.00000000   -0.00013573    0.00000000
     atom    2 type  2   force =     0.00000000    0.00011548    0.00000000
     atom    3 type  1   force =    -0.00091473   -0.00085868    0.00000000
     atom    4 type  1   force =    -0.00091396    0.00086880    0.00000000
     atom    5 type  1   force =     0.00091473   -0.00085868    0.00000000
     atom    6 type  1   force =     0.00091396    0.00086880    0.00000000

     Total force =     0.002522     Total SCF correction =     0.000009

     Computing stress (Cartesian axis) and pressure

          total   stress  (Ry/bohr**3)                   (kbar)     P= -118.97
  -0.00089441   0.00000000   0.00000000       -131.57      0.00      0.00
   0.00000000  -0.00088851   0.00000000          0.00   -130.70      0.00
   0.00000000   0.00000000  -0.00064323          0.00      0.00    -94.62

     BFGS Geometry Optimization

     number of scf cycles    =   1
     number of bfgs steps    =   0

     enthalpy new            =    -704.9015544628 Ry

     new trust radius        =       0.1271462895 bohr
     new conv_thr            =            1.0E-10 Ry

     new unit-cell volume =    760.28806 a.u.^3 (   112.66306 Ang^3 )
     density =      6.88840 g/cm^3

CELL_PARAMETERS (alat=  1.88972599)
   4.465375595  -2.578474654   0.000000000
  -4.465375595  -2.578474654   0.000000000
   0.000000000   0.000000000  -4.892499652

ATOMIC_POSITIONS (angstrom)
Ti       0.000000000  -5.157019537  -4.892499652
Ti       0.000001489  -1.718924210  -2.446249826
Nb      -1.488931764  -2.578918955  -4.892499652
Nb      -1.488929875  -4.297009078  -2.446249826
Nb       1.488931764  -2.578918955  -4.892499652
Nb       1.488932853  -4.297009078  -2.446249826

     NEW-OLD atomic charge density approx. for the potential

     Check: negative/imaginary core charge=   -0.000001    0.000000
     extrapolated charge   71.32346, renormalised to   76.00000

[...]

     iteration #  1     ecut=    40.00 Ry     beta= 0.60
     Davidson diagonalization with overlap
     c_bands:  1 eigenvalues not converged
     c_bands:  1 eigenvalues not converged
     c_bands:  1 eigenvalues not converged
     c_bands:  1 eigenvalues not converged
     c_bands:  1 eigenvalues not converged
     c_bands:  1 eigenvalues not converged
     c_bands:  1 eigenvalues not converged
     c_bands:  1 eigenvalues not converged
     c_bands:  1 eigenvalues not converged
     c_bands:  1 eigenvalues not converged
     c_bands:  1 eigenvalues not converged
     c_bands:  1 eigenvalues not converged
     c_bands:  1 eigenvalues not converged
     c_bands:  1 eigenvalues not converged
     c_bands:  1 eigenvalues not converged
     c_bands:  1 eigenvalues not converged
     c_bands:  1 eigenvalues not converged
     c_bands:  1 eigenvalues not converged
     c_bands:  1 eigenvalues not converged
     c_bands:  2 eigenvalues not converged
     c_bands:  2 eigenvalues not converged
     c_bands:  1 eigenvalues not converged
     c_bands:  1 eigenvalues not converged
     c_bands:  1 eigenvalues not converged
     c_bands:  1 eigenvalues not converged
     c_bands:  1 eigenvalues not converged
     c_bands:  1 eigenvalues not converged
     c_bands:  1 eigenvalues not converged
     c_bands:  1 eigenvalues not converged
     c_bands:  1 eigenvalues not converged
     c_bands:  1 eigenvalues not converged
     c_bands:  2 eigenvalues not converged
     c_bands:  2 eigenvalues not converged
     c_bands:  1 eigenvalues not converged
     c_bands:  2 eigenvalues not converged
     c_bands:  1 eigenvalues not converged
     c_bands:  2 eigenvalues not converged
     c_bands:  1 eigenvalues not converged
     c_bands:  2 eigenvalues not converged
     c_bands:  1 eigenvalues not converged
     c_bands:  1 eigenvalues not converged
     c_bands:  2 eigenvalues not converged
     c_bands:  1 eigenvalues not converged
     c_bands:  1 eigenvalues not converged
     c_bands:  1 eigenvalues not converged
     c_bands:  1 eigenvalues not converged
     c_bands:  2 eigenvalues not converged
     c_bands:  3 eigenvalues not converged
     c_bands:  1 eigenvalues not converged
     c_bands:  1 eigenvalues not converged
     c_bands:  1 eigenvalues not converged
     c_bands:  2 eigenvalues not converged
     c_bands:  1 eigenvalues not converged
     c_bands:  2 eigenvalues not converged
     c_bands:  2 eigenvalues not converged
     c_bands:  1 eigenvalues not converged
     c_bands:  1 eigenvalues not converged
     c_bands:  1 eigenvalues not converged
     c_bands:  1 eigenvalues not converged
     c_bands:  1 eigenvalues not converged
     c_bands:  1 eigenvalues not converged
     c_bands:  1 eigenvalues not converged
     c_bands:  1 eigenvalues not converged
     c_bands:  2 eigenvalues not converged
     c_bands:  1 eigenvalues not converged
     ethr =  1.00E-06,  avg # of iterations = 16.9

[...]

     enthalpy old            =    -704.9015544628 Ry
     enthalpy new            =    -704.9303964859 Ry

     CASE: enthalpy_new < enthalpy_old

[...]

     WARNING: bfgs curvature condition failed, Theta= 0.895
     new trust radius        =       0.0437731105 bohr
     new conv_thr            =            1.0E-10 Ry

[...]

     NEW-OLD atomic charge density approx. for the potential
     extrapolated charge   76.12420, renormalised to   76.00000

[...]

     WARNING: info= 27 for Hessian

[...]

     CASE: enthalpy_new > enthalpy_old

[...]

     WARNING: info= 27 for Hessian

     WARNING: bfgs curvature condition failed, Theta= 0.801
     new trust radius        =       0.0002431892 bohr
     new conv_thr            =            2.6E-11 Ry

[...]

     Threshold (ethr) on eigenvalues was too large:
     Diagonalizing with lowered threshold

     Davidson diagonalization with overlap
     ethr =  8.14E-10,  avg # of iterations =  3.0

[...]

     CASE: enthalpy_new > enthalpy_old

     new trust radius        =       0.0000849836 bohr

     trust_radius < trust_radius_min

     resetting bfgs history

     new conv_thr            =            2.6E-11 Ry

[...]

     NEW-OLD atomic charge density approx. for the potential

     Check: negative/imaginary core charge=   -0.000001    0.000000
     extrapolated charge   74.81444, renormalised to   76.00000

[...]

     iteration #  1     ecut=    40.00 Ry     beta= 0.60
     Davidson diagonalization with overlap
     c_bands:  1 eigenvalues not converged
     c_bands:  1 eigenvalues not converged
     ethr =  1.00E-06,  avg # of iterations =  7.5

[...]

     Total force =     0.000009     Total SCF correction =     0.000001

[...]

     Total force =     0.000001     Total SCF correction =     0.000001
     SCF correction compared to forces is large: reduce conv_thr to get better values

[...]

     small trust_radius: resetting bfgs history

[...]

     number of scf cycles    =  49
     number of bfgs steps    =  44

     enthalpy old            =    -705.0185669139 Ry
     enthalpy new            =    -705.0185669139 Ry

     CASE: enthalpy_new < enthalpy_old

     Message from routine bfgs:
     history already reset at previous step: stopping
     small trust_radius: resetting bfgs history

     new trust radius        =       0.0000013669 bohr
     new conv_thr            =            1.0E-12 Ry

     new unit-cell volume =    717.05563 a.u.^3 (   106.25668 Ang^3 )
     density =      7.30372 g/cm^3

[...]

ATOMIC_POSITIONS (angstrom)
Ti      -0.000000000  -4.296856951  -4.681397466
Ti       0.000001615  -1.953121481  -2.340698733
Nb      -1.659912700  -1.953109775  -4.681397466
Nb      -1.659910591  -4.296843153  -2.340698733
Nb       1.659912700  -1.953109775  -4.681397466
Nb       1.659913820  -4.296843153  -2.340698733

     NEW-OLD atomic charge density approx. for the potential
     extrapolated charge   76.00003, renormalised to   76.00000

     Self-consistent Calculation

[...]

     Threshold (ethr) on eigenvalues was too large:
     Diagonalizing with lowered threshold

     Davidson diagonalization with overlap
     ethr =  2.76E-14,  avg # of iterations =  3.1

[...]

     total energy              =    -705.01856691 Ry
     Harris-Foulkes estimate   =    -705.01856691 Ry
     estimated scf accuracy    <          3.5E-12 Ry

     iteration #  7     ecut=    40.00 Ry     beta= 0.60
     Davidson diagonalization with overlap
     ethr =  1.00E-13,  avg # of iterations =  1.0

     End of self-consistent calculation

     Number of k-points >= 100: set verbosity='high' to print the bands.

     the Fermi energy is    16.5163 ev

!    total energy              =    -705.01856691 Ry
     Harris-Foulkes estimate   =    -705.01856691 Ry
     estimated scf accuracy    <          2.3E-13 Ry

     The total energy is the sum of the following terms:

     one-electron contribution =    -146.63136106 Ry
     hartree contribution      =     108.81936775 Ry
     xc contribution           =    -102.87326742 Ry
     ewald contribution        =    -564.33036581 Ry
     smearing contrib. (-TS)   =      -0.00294039 Ry

     convergence has been achieved in   7 iterations

     Forces acting on atoms (cartesian axes, Ry/au):

     atom    1 type  2   force =     0.00000000    0.00000045   -0.00000000
     atom    2 type  2   force =    -0.00000000   -0.00000013    0.00000000
     atom    3 type  1   force =    -0.00000012    0.00000021   -0.00000000
     atom    4 type  1   force =    -0.00000019   -0.00000037   -0.00000000
     atom    5 type  1   force =     0.00000012    0.00000021    0.00000000
     atom    6 type  1   force =     0.00000019   -0.00000037    0.00000000

     Total force =     0.000001     Total SCF correction =     0.000001
     SCF correction compared to forces is large: reduce conv_thr to get better values

     Computing stress (Cartesian axis) and pressure

          total   stress  (Ry/bohr**3)                   (kbar)     P=    0.00
   0.00000002  -0.00000000  -0.00000000          0.00     -0.00     -0.00
  -0.00000000   0.00000003   0.00000000         -0.00      0.00      0.00
  -0.00000000   0.00000000   0.00000003         -0.00      0.00      0.00

     bfgs converged in  50 scf cycles and  45 bfgs steps
     (criteria: energy <  1.0E-10 Ry, force <  1.0E-05Ry/Bohr, cell <  1.0E-03kbar)

     End of BFGS Geometry Optimization

     Final enthalpy =    -705.0185669140 Ry
Begin final coordinates
     new unit-cell volume =    717.05563 a.u.^3 (   106.25668 Ang^3 )
     density =      7.30372 g/cm^3

CELL_PARAMETERS (alat=  1.88972599)
   4.842195047  -2.343735243   0.000000000
  -4.842195047  -2.343735243  -0.000000000
   0.000000000  -0.000000000  -4.681397466

ATOMIC_POSITIONS (angstrom)
Ti      -0.000000000  -4.296856951  -4.681397466
Ti       0.000001615  -1.953121481  -2.340698733
Nb      -1.659912700  -1.953109775  -4.681397466
Nb      -1.659910591  -4.296843153  -2.340698733
Nb       1.659912700  -1.953109775  -4.681397466
Nb       1.659913820  -4.296843153  -2.340698733
End final coordinates

     A final scf calculation at the relaxed structure.
     The G-vectors are recalculated for the final unit cell
     Results may differ from those at the preceding step.

     bravais-lattice index     =            0
     lattice parameter (alat)  =       1.8897  a.u.
     unit-cell volume          =     717.0556 (a.u.)^3
     number of atoms/cell      =            6
     number of atomic types    =            2
     number of electrons       =        76.00
     number of Kohn-Sham states=           46
     kinetic-energy cutoff     =      40.0000  Ry
     charge density cutoff     =     400.0000  Ry
     convergence threshold     =      1.0E-12
     mixing beta               =       0.6000
     number of iterations used =            8  plain     mixing
     Exchange-correlation      = SLA PW PBE PBE ( 1  4  3  4 0 0)

     celldm(1)=   1.889726  celldm(2)=   0.000000  celldm(3)=   0.000000
     celldm(4)=   0.000000  celldm(5)=   0.000000  celldm(6)=   0.000000

     crystal axes: (cart. coord. in units of alat)
               a(1) = (   4.842195  -2.343735   0.000000 )
               a(2) = (  -4.842195  -2.343735  -0.000000 )
               a(3) = (   0.000000  -0.000000  -4.681397 )

     reciprocal axes: (cart. coord. in units 2 pi/alat)
               b(1) = (  0.103259 -0.213335  0.000000 )
               b(2) = ( -0.103259 -0.213335 -0.000000 )
               b(3) = (  0.000000 -0.000000 -0.213611 )

     PseudoPot. # 1 for Nb read from file:
     ./Nb.pbe-nsp-van.UPF
     MD5 check sum: 0a22fc7fb0ba19a08ca5db297a5d2854
     Pseudo is Ultrasoft + core correction, Zval = 13.0
     Generated by new atomic code, or converted to UPF format
     Using radial grid of  887 points,  6 beta functions with:
                l(1) =   0
                l(2) =   0
                l(3) =   1
                l(4) =   1
                l(5) =   2
                l(6) =   2
     Q(r) pseudized with  6 coefficients,  rinner =    1.000   1.000   1.000
                                                       1.000   1.000

     PseudoPot. # 2 for Ti read from file:
     ./Ti.pbe-sp-van_ak.UPF
     MD5 check sum: f98fea3e8887528921fefa5636a534ca
     Pseudo is Ultrasoft, Zval = 12.0
     Generated by new atomic code, or converted to UPF format
     Using radial grid of  851 points,  6 beta functions with:
                l(1) =   0
                l(2) =   0
                l(3) =   1
                l(4) =   1
                l(5) =   2
                l(6) =   2
     Q(r) pseudized with  8 coefficients,  rinner =    1.000   1.000   1.000
                                                       1.000   1.000

     atomic species   valence    mass     pseudopotential
        Nb            13.00    92.90638     Nb( 1.00)
        Ti            12.00    47.86700     Ti( 1.00)

      4 Sym. Ops. (no inversion) found
          (note:  4 additional sym.ops. were found but ignored
           their fractional translations are incommensurate with FFT grid)

   Cartesian axes

     site n.     atom                  positions (alat units)
         1           Ti  tau(   1) = (  -0.0000000  -4.2968573  -4.6813978  )
         2           Ti  tau(   2) = (   0.0000016  -1.9531216  -2.3406989  )
         3           Nb  tau(   3) = (  -1.6599128  -1.9531099  -4.6813978  )
         4           Nb  tau(   4) = (  -1.6599107  -4.2968435  -2.3406989  )
         5           Nb  tau(   5) = (   1.6599128  -1.9531099  -4.6813978  )
         6           Nb  tau(   6) = (   1.6599139  -4.2968435  -2.3406989  )

     number of k points=   252  Marzari-Vanderbilt smearing, width (Ry)=  0.0200

     Number of k-points >= 100: set verbosity='high' to print them.

     Check: negative/imaginary core charge=   -0.000001    0.000000

     Initial potential from superposition of free atoms

     starting charge   73.98898, renormalised to   76.00000
     Starting wfcs are   72 randomized atomic wfcs

     General routines

     Parallel routines

      37h

   This run was terminated on:  18:14:29  11Feb2020

   JOB DONE.