     Program PWSCF v.6.0 (svn rev. 13079) starts on 25Apr2018 at 15:50:13

     Current dimensions of program PWSCF are:
     Max number of different atomic species (ntypx) = 10
     Max number of k-points (npk) =  40000
     Max angular momentum in pseudopotentials (lmaxx) =  3

     Subspace diagonalization in iterative solution of the eigenvalue problem:
     a serial algorithm will be used

     bravais-lattice index     =            0
     lattice parameter (alat)  =       1.8897  a.u.
     unit-cell volume          =     269.4476 (a.u.)^3
     number of atoms/cell      =            2
     number of atomic types    =            1
     number of electrons       =        26.00
     number of Kohn-Sham states=           17
     kinetic-energy cutoff     =      40.0000  Ry
     charge density cutoff     =     400.0000  Ry
     convergence threshold     =      1.0E-10
     mixing beta               =       0.6000
     number of iterations used =            8  plain     mixing
     Exchange-correlation      =  SLA  PW   PBE  PBE ( 1  4  3  4 0 0)
     nstep                     =           50

     celldm(1)=   1.889726  celldm(2)=   0.000000  celldm(3)=   0.000000
     celldm(4)=   0.000000  celldm(5)=   0.000000  celldm(6)=   0.000000

     crystal axes: (cart. coord. in units of alat)
               a(1) = (   3.045004   0.000000   0.000000 )
               a(2) = (  -1.522502   2.637051   0.000000 )
               a(3) = (   0.000000   0.000000   4.972461 )

     reciprocal axes: (cart. coord. in units 2 pi/alat)
               b(1) = (  0.328407  0.189606 -0.000000 )
               b(2) = (  0.000000  0.379211  0.000000 )
               b(3) = (  0.000000 -0.000000  0.201108 )

     PseudoPot. # 1 for Nb read from file:
     ./Nb.pbe-nsp-van.UPF
     MD5 check sum: 0a22fc7fb0ba19a08ca5db297a5d2854
     Pseudo is Ultrasoft + core correction, Zval = 13.0
     Generated by new atomic code, or converted to UPF format
     Using radial grid of  887 points,  6 beta functions with:
                l(1) =   0
                l(2) =   0
                l(3) =   1
                l(4) =   1
                l(5) =   2
                l(6) =   2
     Q(r) pseudized with  6 coefficients,  rinner =    1.000   1.000   1.000
                                                       1.000   1.000

     atomic species   valence    mass     pseudopotential
        Nb            13.00    92.90638     Nb( 1.00)

     12 Sym. Ops. (no inversion) found
          (note: 12 additional sym.ops. were found but ignored
           their fractional translations are incommensurate with FFT grid)

   Cartesian axes

     site n.     atom                  positions (alat units)
         1           Nb  tau(   1) = (   1.5225021   2.6370512   4.9724614  )
         2           Nb  tau(   2) = (   1.5225036   0.8790162   2.4862307  )

     number of k points=   280  Marzari-Vanderbilt smearing, width (Ry)=  0.0200

     Number of k-points >= 100: set verbosity='high' to print them.

     Check: negative/imaginary core charge=   -0.000001    0.000000

     Initial potential from superposition of free atoms

     starting charge   25.99453, renormalised to   26.00000
     Starting wfc are   26 randomized atomic wfcs

     Self-consistent Calculation

     iteration #  1     ecut=    40.00 Ry     beta=0.60
     Davidson diagonalization with overlap
     ethr =  1.00E-02,  avg # of iterations =  2.0

     Threshold (ethr) on eigenvalues was too large:
     Diagonalizing with lowered threshold

     Davidson diagonalization with overlap
     ethr =  7.75E-04,  avg # of iterations =  1.2

     total energy              =    -235.76766960 Ry
     Harris-Foulkes estimate   =    -235.88367239 Ry
     estimated scf accuracy    <       0.21060039 Ry

[...]

     End of self-consistent calculation

     Number of k-points >= 100: set verbosity='high' to print the bands.

     the Fermi energy is    16.3208 ev

!    total energy              =    -235.80693516 Ry
     Harris-Foulkes estimate   =    -235.80693516 Ry
     estimated scf accuracy    <          2.8E-11 Ry

     The total energy is the sum of the following terms:

     one-electron contribution =     -41.17148064 Ry
     hartree contribution      =      32.46111243 Ry
     xc contribution           =     -36.67150649 Ry
     ewald contribution        =    -190.42516458 Ry
     smearing contrib. (-TS)   =       0.00010411 Ry

     convergence has been achieved in   9 iterations

     Forces acting on atoms (Ry/au):

     atom    1 type  1   force =     0.00000000    0.00000000    0.00000000
     atom    2 type  1   force =     0.00000000    0.00000000    0.00000000

     Total force =     0.000000     Total SCF correction =     0.000000

     entering subroutine stress ...

          total   stress  (Ry/bohr**3)                   (kbar)     P= -100.28
  -0.00085989   0.00000000   0.00000000       -126.49      0.00      0.00
   0.00000000  -0.00085989   0.00000000          0.00   -126.49      0.00
   0.00000000  -0.00000000  -0.00032537          0.00     -0.00    -47.86

     BFGS Geometry Optimization

     number of scf cycles    =   1
     number of bfgs steps    =   0

     enthalpy new            =    -235.8069351579 Ry

     new trust radius        =       0.0705745106 bohr
     new conv_thr            =            1.0E-10 Ry

     new unit-cell volume =    255.88887 a.u.^3 (    37.91882 Ang^3 )

CELL_PARAMETERS (alat=  1.88972599)
   2.979545114   0.000000000   0.000000000
  -1.489772557   2.580361946  -0.000000000
   0.000000000   0.000000000   4.932014027

ATOMIC_POSITIONS (angstrom)
Nb       1.489772557   2.580361946   4.932014027
Nb       1.489774047   0.860119789   2.466007014

     NEW-OLD atomic charge density approx. for the potential

     Check: negative/imaginary core charge=   -0.000001    0.000000
     extrapolated charge   24.62264, renormalised to   26.00000

[...]

     enthalpy old            =    -235.8069351579 Ry
     enthalpy new            =    -235.8144235072 Ry

     CASE: enthalpy_new < enthalpy_old

[...]

     small trust_radius: resetting bfgs history

[...]

     number of scf cycles    =   9
     number of bfgs steps    =   8

     enthalpy old            =    -235.8218217374 Ry
     enthalpy new            =    -235.8218217374 Ry

     CASE: enthalpy_new < enthalpy_old

     Message from routine bfgs:
     history already reset at previous step: stopping
     small trust_radius: resetting bfgs history

     new trust radius        =       0.0000012075 bohr
     new conv_thr            =            1.0E-12 Ry

     new unit-cell volume =    251.30314 a.u.^3 (    37.23928 Ang^3 )

[...]

ATOMIC_POSITIONS (angstrom)
Nb       1.431730072   2.479829420   5.244311289
Nb       1.431731505   0.826608980   2.622155645

     NEW-OLD atomic charge density approx. for the potential

     Check: negative/imaginary core charge=   -0.000001    0.000000
     extrapolated charge   26.00002, renormalised to   26.00000

[...]

     Threshold (ethr) on eigenvalues was too large:
     Diagonalizing with lowered threshold

     Davidson diagonalization with overlap
     ethr =  1.37E-13,  avg # of iterations =  1.7

[...]

     bfgs converged in  10 scf cycles and   9 bfgs steps
     (criteria: energy <  1.0E-10, force <  1.0E-05, cell <  1.0E-03)

     End of BFGS Geometry Optimization

     Final enthalpy =    -235.8218217373 Ry
Begin final coordinates
     new unit-cell volume =    251.30314 a.u.^3 (    37.23928 Ang^3 )

CELL_PARAMETERS (alat=  1.88972599)
   2.863460145  -0.000000000   0.000000000
  -1.431730072   2.479829420  -0.000000000
  -0.000000000   0.000000000   5.244311289

ATOMIC_POSITIONS (angstrom)
Nb       1.431730072   2.479829420   5.244311289
Nb       1.431731505   0.826608980   2.622155645
End final coordinates

     A final scf calculation at the relaxed structure.
     The G-vectors are recalculated for the final unit cell
     Results may differ from those at the preceding step.

   Info: using nr1, nr2, nr3 values from input

   Info: using nr1, nr2, nr3 values from input

     bravais-lattice index     =            0
     lattice parameter (alat)  =       1.8897  a.u.
     unit-cell volume          =     251.3031 (a.u.)^3
     number of atoms/cell      =            2
     number of atomic types    =            1
     number of electrons       =        26.00
     number of Kohn-Sham states=           17
     kinetic-energy cutoff     =      40.0000  Ry
     charge density cutoff     =     400.0000  Ry
     convergence threshold     =      1.0E-12
     mixing beta               =       0.6000
     number of iterations used =            8  plain     mixing
     Exchange-correlation      =  SLA  PW   PBE  PBE ( 1  4  3  4 0 0)

     celldm(1)=   1.889726  celldm(2)=   0.000000  celldm(3)=   0.000000
     celldm(4)=   0.000000  celldm(5)=   0.000000  celldm(6)=   0.000000

     crystal axes: (cart. coord. in units of alat)
               a(1) = (   2.863460  -0.000000   0.000000 )
               a(2) = (  -1.431730   2.479829  -0.000000 )
               a(3) = (  -0.000000   0.000000   5.244311 )

     reciprocal axes: (cart. coord. in units 2 pi/alat)
               b(1) = (  0.349228  0.201627 -0.000000 )
               b(2) = (  0.000000  0.403254 -0.000000 )
               b(3) = ( -0.000000  0.000000  0.190683 )

     PseudoPot. # 1 for Nb read from file:
     ./Nb.pbe-nsp-van.UPF
     MD5 check sum: 0a22fc7fb0ba19a08ca5db297a5d2854
     Pseudo is Ultrasoft + core correction, Zval = 13.0
     Generated by new atomic code, or converted to UPF format
     Using radial grid of  887 points,  6 beta functions with:
                l(1) =   0
                l(2) =   0
                l(3) =   1
                l(4) =   1
                l(5) =   2
                l(6) =   2
     Q(r) pseudized with  6 coefficients,  rinner =    1.000   1.000   1.000
                                                       1.000   1.000

     atomic species   valence    mass     pseudopotential
        Nb            13.00    92.90638     Nb( 1.00)

     12 Sym. Ops. (no inversion) found
          (note: 12 additional sym.ops. were found but ignored
           their fractional translations are incommensurate with FFT grid)

   Cartesian axes

     site n.     atom                  positions (alat units)
         1           Nb  tau(   1) = (   1.4317302   2.4798296   5.2443117  )
         2           Nb  tau(   2) = (   1.4317316   0.8266090   2.6221558  )

     number of k points=   280  Marzari-Vanderbilt smearing, width (Ry)=  0.0200

     Number of k-points >= 100: set verbosity='high' to print them.

     Check: negative/imaginary core charge=   -0.000001    0.000000

     Initial potential from superposition of free atoms

     starting charge   25.99453, renormalised to   26.00000
     Starting wfc are   26 randomized atomic wfcs

     Self-consistent Calculation

[...]

     total energy              =    -235.82152716 Ry
     Harris-Foulkes estimate   =    -235.82152716 Ry
     estimated scf accuracy    <          6.0E-12 Ry

     iteration # 10     ecut=    40.00 Ry     beta=0.60
     Davidson diagonalization with overlap
     ethr =  1.00E-13,  avg # of iterations =  2.4

     End of self-consistent calculation

     Number of k-points >= 100: set verbosity='high' to print the bands.

     the Fermi energy is    17.6465 ev

!    total energy              =    -235.82152716 Ry
     Harris-Foulkes estimate   =    -235.82152716 Ry
     estimated scf accuracy    <          5.9E-13 Ry

     The total energy is the sum of the following terms:

     one-electron contribution =     -35.59447407 Ry
     hartree contribution      =      31.11430408 Ry
     xc contribution           =     -36.83925640 Ry
     ewald contribution        =    -194.50216004 Ry
     smearing contrib. (-TS)   =       0.00005928 Ry

     convergence has been achieved in  10 iterations

     Forces acting on atoms (Ry/au):

     atom    1 type  1   force =     0.00000000    0.00000000    0.00000000
     atom    2 type  1   force =    -0.00000000   -0.00000000    0.00000000

     Total force =     0.000000     Total SCF correction =     0.000000

     entering subroutine stress ...

          total   stress  (Ry/bohr**3)                   (kbar)     P=    0.80
   0.00000818   0.00000000   0.00000000          1.20      0.00      0.00
   0.00000000   0.00000818  -0.00000000          0.00      1.20     -0.00
   0.00000000  -0.00000000  -0.00000004          0.00     -0.00     -0.01

     General routines

     Parallel routines

   This run was terminated on:  16: 4:23  25Apr2018

   JOB DONE.