     Program PWSCF v.6.3MaX starts on 24Mar2020 at 18:48:46

     R & G space division:  proc/nbgrp/npool/nimage =       4
     Waiting for input...
     Reading input from standard input

     Current dimensions of program PWSCF are:
     Max number of different atomic species (ntypx) = 10
     Max number of k-points (npk) =  40000
     Max angular momentum in pseudopotentials (lmaxx) =  3
     Message from routine iosys:
     minimal I/O required, wf_collect reset to FALSE

     Subspace diagonalization in iterative solution of the eigenvalue problem:
     a serial algorithm will be used

     bravais-lattice index     =            0
     lattice parameter (alat)  =       1.8897  a.u.
     unit-cell volume          =    1077.7903 (a.u.)^3
     number of atoms/cell      =            8
     number of atomic types    =            2
     number of electrons       =        97.00
     number of Kohn-Sham states=           59
     kinetic-energy cutoff     =      40.0000  Ry
     charge density cutoff     =     400.0000  Ry
     convergence threshold     =      1.0E-10
     mixing beta               =       0.6000
     number of iterations used =            8  plain     mixing
     Exchange-correlation      = SLA PW PBE PBE ( 1  4  3  4 0 0)
     nstep                     =           50

     celldm(1)=   1.889726  celldm(2)=   0.000000  celldm(3)=   0.000000
     celldm(4)=   0.000000  celldm(5)=   0.000000  celldm(6)=   0.000000

     crystal axes: (cart. coord. in units of alat)
               a(1) = (   3.045004  -5.274102   0.000000 )
               a(2) = (  -6.090008   0.000000   0.000000 )
               a(3) = (   0.000000   0.000000  -4.972461 )

     reciprocal axes: (cart. coord. in units 2 pi/alat)
               b(1) = (  0.000000 -0.189606  0.000000 )
               b(2) = ( -0.164203 -0.094803  0.000000 )
               b(3) = (  0.000000  0.000000 -0.201108 )

     PseudoPot. # 1 for Nb read from file:
     ./Nb.pbe-nsp-van.UPF
     MD5 check sum: 0a22fc7fb0ba19a08ca5db297a5d2854
     Pseudo is Ultrasoft + core correction, Zval = 13.0
     Generated by new atomic code, or converted to UPF format
     Using radial grid of  887 points,  6 beta functions with:
                l(1) =   0
                l(2) =   0
                l(3) =   1
                l(4) =   1
                l(5) =   2
                l(6) =   2
     Q(r) pseudized with  6 coefficients,  rinner =    1.000   1.000   1.000
                                                       1.000   1.000

     PseudoPot. # 2 for Ti read from file:
     ./Ti.pbe-sp-van_ak.UPF
     MD5 check sum: f98fea3e8887528921fefa5636a534ca
     Pseudo is Ultrasoft, Zval = 12.0
     Generated by new atomic code, or converted to UPF format
     Using radial grid of  851 points,  6 beta functions with:
                l(1) =   0
                l(2) =   0
                l(3) =   1
                l(4) =   1
                l(5) =   2
                l(6) =   2
     Q(r) pseudized with  8 coefficients,  rinner =    1.000   1.000   1.000
                                                       1.000   1.000

     atomic species   valence    mass     pseudopotential
        Nb            13.00    92.90638     Nb( 1.00)
        Ti            12.00    47.86700     Ti( 1.00)

      4 Sym. Ops. (no inversion) found
          (note:  8 additional sym.ops. were found but ignored
           their fractional translations are incommensurate with FFT grid)

   Cartesian axes

     site n.     atom                  positions (alat units)
         1           Ti  tau(   1) = (  -3.0450042  -5.2741024  -4.9724614  )
         2           Ti  tau(   2) = (   0.0000015  -1.7580350  -2.4862307  )
         3           Ti  tau(   3) = (   0.0000000  -5.2741024  -4.9724614  )
         4           Ti  tau(   4) = (  -3.0450027  -1.7580350  -2.4862307  )
         5           Ti  tau(   5) = (  -4.5675063  -2.6370512  -4.9724614  )
         6           Ti  tau(   6) = (   1.5225036  -4.3950862  -2.4862307  )
         7           Ti  tau(   7) = (  -1.5225021  -2.6370512  -4.9724614  )
         8           Nb  tau(   8) = (  -1.5225006  -4.3950862  -2.4862307  )

     number of k points=   217  Marzari-Vanderbilt smearing, width (Ry)=  0.0200

     Number of k-points >= 100: set verbosity='high' to print them.

     Initial potential from superposition of free atoms

     starting charge   89.99696, renormalised to   97.00000
     Starting wfcs are   83 randomized atomic wfcs

     Self-consistent Calculation

     iteration #  1     ecut=    40.00 Ry     beta= 0.60
     Davidson diagonalization with overlap
     ethr =  1.00E-02,  avg # of iterations =  4.3

     total energy              =    -930.35065980 Ry
     Harris-Foulkes estimate   =    -936.91462298 Ry
     estimated scf accuracy    <       8.72922445 Ry

[...]

     iteration # 15     ecut=    40.00 Ry     beta= 0.60
     Davidson diagonalization with overlap
     c_bands:  1 eigenvalues not converged
     c_bands:  1 eigenvalues not converged
     ethr =  6.77E-06,  avg # of iterations =  8.0

[...]

     End of self-consistent calculation

     Number of k-points >= 100: set verbosity='high' to print the bands.

     the Fermi energy is    11.9323 ev

!    total energy              =    -934.41131594 Ry
     Harris-Foulkes estimate   =    -934.41131594 Ry
     estimated scf accuracy    <          7.1E-11 Ry

     The total energy is the sum of the following terms:

     one-electron contribution =    -352.78830869 Ry
     hartree contribution      =     200.47681148 Ry
     xc contribution           =    -119.27428733 Ry
     ewald contribution        =    -662.82186440 Ry
     smearing contrib. (-TS)   =      -0.00366699 Ry

     convergence has been achieved in  31 iterations

     Forces acting on atoms (cartesian axes, Ry/au):

     atom    1 type  2   force =     0.00137645    0.00079469    0.00000000
     atom    2 type  2   force =     0.00006981   -0.00004212    0.00000000
     atom    3 type  2   force =    -0.00137353    0.00079676    0.00000000
     atom    4 type  2   force =    -0.00007134   -0.00004119    0.00000000
     atom    5 type  2   force =    -0.00000209   -0.00000121    0.00000000
     atom    6 type  2   force =    -0.00000157    0.00008151    0.00000000
     atom    7 type  2   force =     0.00000325   -0.00158789    0.00000000
     atom    8 type  1   force =    -0.00000097   -0.00000056    0.00000000

     Total force =     0.002755     Total SCF correction =     0.000013

     Computing stress (Cartesian axis) and pressure

          total   stress  (Ry/bohr**3)                   (kbar)     P= -134.48
  -0.00087555   0.00000001   0.00000000       -128.80      0.00      0.00
   0.00000001  -0.00087556   0.00000000          0.00   -128.80      0.00
   0.00000000   0.00000000  -0.00099147          0.00      0.00   -145.85

     BFGS Geometry Optimization

     number of scf cycles    =   1
     number of bfgs steps    =   0

     enthalpy new            =    -934.4113159411 Ry

     new trust radius        =       0.1627479979 bohr
     new conv_thr            =            1.0E-10 Ry

     new unit-cell volume =   1005.56524 a.u.^3 (   149.00939 Ang^3 )
     density =      4.76930 g/cm^3

CELL_PARAMETERS (alat=  1.88972599)
   2.978350909  -5.158655468   0.000000000
  -5.956705489  -0.000002120   0.000000000
   0.000000000   0.000000000  -4.849210154

ATOMIC_POSITIONS (angstrom)
Ti      -2.977642140  -5.158246260  -4.849210154
Ti       0.000037009  -1.719574835  -2.424605077
Ti      -0.000712765  -5.158244131  -4.849210154
Ti      -2.978388791  -1.719575413  -2.424605077
Ti      -4.467531118  -2.579330479  -4.849210154
Ti       1.489175519  -4.298838580  -2.424605077
Ti      -1.489175609  -2.580150675  -4.849210154
Nb      -1.489176915  -4.298882120  -2.424605077

     NEW-OLD atomic charge density approx. for the potential
     extrapolated charge   90.53594, renormalised to   97.00000

[...]

     enthalpy old            =    -934.4113159411 Ry
     enthalpy new            =    -934.4636332306 Ry

     CASE: enthalpy_new < enthalpy_old

[...]

     Threshold (ethr) on eigenvalues was too large:
     Diagonalizing with lowered threshold

     Davidson diagonalization with overlap
     ethr =  4.50E-08,  avg # of iterations =  4.5

[...]

     CASE: enthalpy_new < enthalpy_old

     small trust_radius: resetting bfgs history

     new trust radius        =       0.0000835221 bohr
     new conv_thr            =            7.9E-12 Ry

[...]

     NEW-OLD atomic charge density approx. for the potential
     extrapolated charge   97.00173, renormalised to   97.00000

[...]

     number of scf cycles    =   9
     number of bfgs steps    =   8

     enthalpy old            =    -934.4814039851 Ry
     enthalpy new            =    -934.4814034704 Ry

     CASE: enthalpy_new > enthalpy_old

     new trust radius        =       0.0000033367 bohr

     trust_radius < trust_radius_min

     resetting bfgs history

     Message from routine bfgs:
     history already reset at previous step: stopping
     new conv_thr            =            7.9E-12 Ry

     new unit-cell volume =    940.34586 a.u.^3 (   139.34488 Ang^3 )
     density =      5.10008 g/cm^3

[...]

ATOMIC_POSITIONS (angstrom)
Ti      -2.927808001  -5.067453655  -4.702790382
Ti      -0.000622766  -1.688182899  -2.351395191
Ti       0.003178739  -5.067461117  -4.702790382
Ti      -2.924030871  -1.688191825  -2.351395191
Ti      -4.386956417  -2.532810657  -4.702790382
Ti       1.462320182  -4.222074602  -2.351395191
Ti      -1.462321093  -2.529140761  -4.702790382
Nb      -1.462321368  -4.221356179  -2.351395191

     NEW-OLD atomic charge density approx. for the potential

[...]

     Threshold (ethr) on eigenvalues was too large:
     Diagonalizing with lowered threshold

     Davidson diagonalization with overlap
     ethr =  6.58E-14,  avg # of iterations =  4.2

[...]

     bfgs converged in  10 scf cycles and   8 bfgs steps
     (criteria: energy <  1.0E-10 Ry, force <  1.0E-05Ry/Bohr, cell <  1.0E-03kbar)

     End of BFGS Geometry Optimization

     Final enthalpy =    -934.4814034704 Ry
Begin final coordinates
     new unit-cell volume =    940.34586 a.u.^3 (   139.34488 Ang^3 )
     density =      5.10008 g/cm^3

CELL_PARAMETERS (alat=  1.88972599)
   2.924639270  -5.065624188  -0.000000000
  -5.849280762  -0.000001282   0.000000000
  -0.000000000  -0.000000000  -4.702790382

ATOMIC_POSITIONS (angstrom)
Ti      -2.927808001  -5.067453655  -4.702790382
Ti      -0.000622766  -1.688182899  -2.351395191
Ti       0.003178739  -5.067461117  -4.702790382
Ti      -2.924030871  -1.688191825  -2.351395191
Ti      -4.386956417  -2.532810657  -4.702790382
Ti       1.462320182  -4.222074602  -2.351395191
Ti      -1.462321093  -2.529140761  -4.702790382
Nb      -1.462321368  -4.221356179  -2.351395191
End final coordinates

     A final scf calculation at the relaxed structure.
     The G-vectors are recalculated for the final unit cell
     Results may differ from those at the preceding step.

     bravais-lattice index     =            0
     lattice parameter (alat)  =       1.8897  a.u.
     unit-cell volume          =     940.3459 (a.u.)^3
     number of atoms/cell      =            8
     number of atomic types    =            2
     number of electrons       =        97.00
     number of Kohn-Sham states=           59
     kinetic-energy cutoff     =      40.0000  Ry
     charge density cutoff     =     400.0000  Ry
     convergence threshold     =      7.9E-12
     mixing beta               =       0.6000
     number of iterations used =            8  plain     mixing
     Exchange-correlation      = SLA PW PBE PBE ( 1  4  3  4 0 0)

     celldm(1)=   1.889726  celldm(2)=   0.000000  celldm(3)=   0.000000
     celldm(4)=   0.000000  celldm(5)=   0.000000  celldm(6)=   0.000000

     crystal axes: (cart. coord. in units of alat)
               a(1) = (   2.924639  -5.065624  -0.000000 )
               a(2) = (  -5.849281  -0.000001   0.000000 )
               a(3) = (  -0.000000  -0.000000  -4.702790 )

     reciprocal axes: (cart. coord. in units 2 pi/alat)
               b(1) = (  0.000000 -0.197409  0.000000 )
               b(2) = ( -0.170961 -0.098704  0.000000 )
               b(3) = ( -0.000000 -0.000000 -0.212640 )

     PseudoPot. # 1 for Nb read from file:
     ./Nb.pbe-nsp-van.UPF
     MD5 check sum: 0a22fc7fb0ba19a08ca5db297a5d2854
     Pseudo is Ultrasoft + core correction, Zval = 13.0
     Generated by new atomic code, or converted to UPF format
     Using radial grid of  887 points,  6 beta functions with:
                l(1) =   0
                l(2) =   0
                l(3) =   1
                l(4) =   1
                l(5) =   2
                l(6) =   2
     Q(r) pseudized with  6 coefficients,  rinner =    1.000   1.000   1.000
                                                       1.000   1.000

     PseudoPot. # 2 for Ti read from file:
     ./Ti.pbe-sp-van_ak.UPF
     MD5 check sum: f98fea3e8887528921fefa5636a534ca
     Pseudo is Ultrasoft, Zval = 12.0
     Generated by new atomic code, or converted to UPF format
     Using radial grid of  851 points,  6 beta functions with:
                l(1) =   0
                l(2) =   0
                l(3) =   1
                l(4) =   1
                l(5) =   2
                l(6) =   2
     Q(r) pseudized with  8 coefficients,  rinner =    1.000   1.000   1.000
                                                       1.000   1.000

     atomic species   valence    mass     pseudopotential
        Nb            13.00    92.90638     Nb( 1.00)
        Ti            12.00    47.86700     Ti( 1.00)

      4 Sym. Ops. (no inversion) found
          (note:  8 additional sym.ops. were found but ignored
           their fractional translations are incommensurate with FFT grid)

   Cartesian axes

     site n.     atom                  positions (alat units)
         1           Ti  tau(   1) = (  -2.9278082  -5.0674540  -4.7027907  )
         2           Ti  tau(   2) = (  -0.0006228  -1.6881830  -2.3513954  )
         3           Ti  tau(   3) = (   0.0031787  -5.0674615  -4.7027907  )
         4           Ti  tau(   4) = (  -2.9240311  -1.6881920  -2.3513954  )
         5           Ti  tau(   5) = (  -4.3869568  -2.5328109  -4.7027907  )
         6           Ti  tau(   6) = (   1.4623203  -4.2220749  -2.3513954  )
         7           Ti  tau(   7) = (  -1.4623212  -2.5291410  -4.7027907  )
         8           Nb  tau(   8) = (  -1.4623215  -4.2213565  -2.3513954  )

     number of k points=   217  Marzari-Vanderbilt smearing, width (Ry)=  0.0200

     Number of k-points >= 100: set verbosity='high' to print them.

     Initial potential from superposition of free atoms

     starting charge   89.99696, renormalised to   97.00000
     Starting wfcs are   83 randomized atomic wfcs

     Self-consistent Calculation

[...]

     iteration # 16     ecut=    40.00 Ry     beta= 0.60
     Davidson diagonalization with overlap
     c_bands:  1 eigenvalues not converged
     c_bands:  1 eigenvalues not converged
     ethr =  6.02E-07,  avg # of iterations =  1.4

[...]

     total energy              =    -934.47300934 Ry
     Harris-Foulkes estimate   =    -934.47300934 Ry
     estimated scf accuracy    <          1.7E-11 Ry

     iteration # 33     ecut=    40.00 Ry     beta= 0.60
     Davidson diagonalization with overlap
     ethr =  1.00E-13,  avg # of iterations =  1.1

     End of self-consistent calculation

     Number of k-points >= 100: set verbosity='high' to print the bands.

     the Fermi energy is    14.0636 ev

!    total energy              =    -934.47300934 Ry
     Harris-Foulkes estimate   =    -934.47300934 Ry
     estimated scf accuracy    <          2.0E-12 Ry

     The total energy is the sum of the following terms:

     one-electron contribution =    -306.70569319 Ry
     hartree contribution      =     185.97428778 Ry
     xc contribution           =    -120.09648500 Ry
     ewald contribution        =    -693.63979456 Ry
     smearing contrib. (-TS)   =      -0.00532437 Ry

     convergence has been achieved in  33 iterations

     Forces acting on atoms (cartesian axes, Ry/au):

     atom    1 type  2   force =     0.00011389    0.00006576   -0.00000000
     atom    2 type  2   force =     0.00003790   -0.00002314   -0.00000000
     atom    3 type  2   force =    -0.00011432    0.00006744    0.00000000
     atom    4 type  2   force =    -0.00003680   -0.00002125    0.00000000
     atom    5 type  2   force =    -0.00000164   -0.00000095    0.00000000
     atom    6 type  2   force =    -0.00000109    0.00004439   -0.00000000
     atom    7 type  2   force =     0.00000125   -0.00013273    0.00000000
     atom    8 type  1   force =     0.00000082    0.00000048   -0.00000000

     Total force =     0.000241     Total SCF correction =     0.000002

     Computing stress (Cartesian axis) and pressure

          total   stress  (Ry/bohr**3)                   (kbar)     P=   -7.45
  -0.00004890   0.00000000   0.00000000         -7.19      0.00      0.00
   0.00000000  -0.00004890   0.00000000          0.00     -7.19      0.00
  -0.00000000  -0.00000000  -0.00005420         -0.00     -0.00     -7.97

     General routines

     Parallel routines

      54h

   This run was terminated on:  21:43:45  24Mar2020

   JOB DONE.