     Program PWSCF v.6.0 (svn rev. 13079) starts on  3Mar2020 at 15:20:36

     Current dimensions of program PWSCF are:
     Max number of different atomic species (ntypx) = 10
     Max number of k-points (npk) =  40000
     Max angular momentum in pseudopotentials (lmaxx) =  3

     Subspace diagonalization in iterative solution of the eigenvalue problem:
     a serial algorithm will be used

     bravais-lattice index     =            0
     lattice parameter (alat)  =       1.8897  a.u.
     unit-cell volume          =     808.3427 (a.u.)^3
     number of atoms/cell      =            6
     number of atomic types    =            2
     number of electrons       =        74.00
     number of Kohn-Sham states=           44
     kinetic-energy cutoff     =      40.0000  Ry
     charge density cutoff     =     400.0000  Ry
     convergence threshold     =      1.0E-10
     mixing beta               =       0.6000
     number of iterations used =            8  plain     mixing
     Exchange-correlation      = SLA  PW   PBE  PBE ( 1  4  3  4 0 0)
     nstep                     =           50

     celldm(1)=   1.889726  celldm(2)=   0.000000  celldm(3)=   0.000000
     celldm(4)=   0.000000  celldm(5)=   0.000000  celldm(6)=   0.000000

     crystal axes: (cart. coord. in units of alat)
               a(1) = (  -1.522502  -2.637051   0.000000 )
               a(2) = (   3.045004   0.000000   0.000000 )
               a(3) = (   0.000000   0.000000  14.917383 )

     reciprocal axes: (cart. coord. in units 2 pi/alat)
               b(1) = (  0.000000 -0.379211  0.000000 )
               b(2) = (  0.328407 -0.189606  0.000000 )
               b(3) = ( -0.000000  0.000000  0.067036 )

     PseudoPot. # 1 for Nb read from file:
     ./Nb.pbe-nsp-van.UPF
     MD5 check sum: 0a22fc7fb0ba19a08ca5db297a5d2854
     Pseudo is Ultrasoft + core correction, Zval = 13.0
     Generated by new atomic code, or converted to UPF format
     Using radial grid of  887 points,  6 beta functions with:
                l(1) =   0
                l(2) =   0
                l(3) =   1
                l(4) =   1
                l(5) =   2
                l(6) =   2
     Q(r) pseudized with  6 coefficients,  rinner =    1.000   1.000   1.000
                                                       1.000   1.000

     PseudoPot. # 2 for Ti read from file:
     ./Ti.pbe-sp-van_ak.UPF
     MD5 check sum: f98fea3e8887528921fefa5636a534ca
     Pseudo is Ultrasoft, Zval = 12.0
     Generated by new atomic code, or converted to UPF format
     Using radial grid of  851 points,  6 beta functions with:
                l(1) =   0
                l(2) =   0
                l(3) =   1
                l(4) =   1
                l(5) =   2
                l(6) =   2
     Q(r) pseudized with  8 coefficients,  rinner =    1.000   1.000   1.000
                                                       1.000   1.000

     atomic species   valence    mass     pseudopotential
        Nb            13.00    92.90638     Nb( 1.00)
        Ti            12.00    47.86700     Ti( 1.00)

     12 Sym. Ops. (no inversion) found ( 6 have fractional translation)
          (note: 12 additional sym.ops. were found but ignored
           their fractional translations are incommensurate with FFT grid)

   Cartesian axes

     site n.     atom                  positions (alat units)
         1           Nb  tau(   1) = (   1.5225021  -2.6370512   4.9724614  )
         2           Ti  tau(   2) = (   0.0000015  -1.7580350   2.4862307  )
         3           Ti  tau(   3) = (   1.5225021  -2.6370512   9.9449228  )
         4           Ti  tau(   4) = (   0.0000015  -1.7580350   7.4586921  )
         5           Ti  tau(   5) = (   1.5225021  -2.6370512  14.9173841  )
         6           Nb  tau(   6) = (   0.0000015  -1.7580350  12.4311534  )

     number of k points=   120  Marzari-Vanderbilt smearing, width (Ry)=  0.0200

     Number of k-points >= 100: set verbosity='high' to print them.

     Initial potential from superposition of free atoms

     starting charge   69.99436, renormalised to   74.00000
     Starting wfc are   66 randomized atomic wfcs

     Self-consistent Calculation

     iteration #  1     ecut=    40.00 Ry     beta=0.60
     Davidson diagonalization with overlap
     ethr =  1.00E-02,  avg # of iterations =  3.6

     total energy              =    -671.10628516 Ry
     Harris-Foulkes estimate   =    -708.70753983 Ry
     estimated scf accuracy    <      46.49727438 Ry

[...]

     End of self-consistent calculation

     Number of k-points >= 100: set verbosity='high' to print the bands.

     the Fermi energy is    12.9827 ev

!    total energy              =    -702.38754106 Ry
     Harris-Foulkes estimate   =    -702.38754106 Ry
     estimated scf accuracy    <          2.6E-11 Ry

     The total energy is the sum of the following terms:

     one-electron contribution =    -231.73363267 Ry
     hartree contribution      =     137.93323785 Ry
     xc contribution           =     -94.33811560 Ry
     ewald contribution        =    -514.24490115 Ry
     smearing contrib. (-TS)   =      -0.00412949 Ry

     convergence has been achieved in  23 iterations

     Forces acting on atoms (Ry/au):

     atom    1 type  1   force =     0.00000000    0.00000000    0.00000000
     atom    2 type  2   force =     0.00000000    0.00000000   -0.00776227
     atom    3 type  2   force =     0.00000000   -0.00000000   -0.00776067
     atom    4 type  2   force =     0.00000000    0.00000000    0.00776227
     atom    5 type  2   force =     0.00000000    0.00000000    0.00776067
     atom    6 type  1   force =    -0.00000000    0.00000000    0.00000000

     Total force =     0.015523     Total SCF correction =     0.000024

     entering subroutine stress ...

          total   stress  (Ry/bohr**3)                   (kbar)     P= -129.06
  -0.00090073  -0.00000000   0.00000000       -132.50     -0.00      0.00
  -0.00000000  -0.00090073   0.00000000         -0.00   -132.50      0.00
   0.00000000   0.00000000  -0.00083044          0.00      0.00   -122.16

     BFGS Geometry Optimization

     number of scf cycles    =   1
     number of bfgs steps    =   0

     enthalpy new            =    -702.3875410589 Ry

     new trust radius        =       0.1280453675 bohr
     new conv_thr            =            1.0E-10 Ry

     new unit-cell volume =    756.31280 a.u.^3 (   112.07399 Ang^3 )

CELL_PARAMETERS (alat=  1.88972599)
  -1.488217803  -2.577669033  -0.000000000
   2.976435606  -0.000000000  -0.000000000
   0.000000000   0.000000000  14.607681738

ATOMIC_POSITIONS (angstrom)
Nb       1.488217803  -2.577669033   4.869227246
Ti       0.000001489  -1.718446881   2.430591285
Ti       1.488217803  -2.577669033   9.734432985
Ti       0.000001489  -1.718446881   7.307863207
Ti       1.488217803  -2.577669033  14.611703246
Nb       0.000001489  -1.718446881  12.173068115

     NEW-OLD atomic charge density approx. for the potential
     extrapolated charge   69.18479, renormalised to   74.00000

[...]

     iteration #  1     ecut=    40.00 Ry     beta=0.60
     Davidson diagonalization with overlap
     c_bands:  1 eigenvalues not converged
     c_bands:  2 eigenvalues not converged
     c_bands:  3 eigenvalues not converged
     c_bands:  2 eigenvalues not converged
     c_bands:  3 eigenvalues not converged
     c_bands:  2 eigenvalues not converged
     c_bands:  2 eigenvalues not converged
     c_bands:  1 eigenvalues not converged
     c_bands:  3 eigenvalues not converged
     c_bands:  2 eigenvalues not converged
     c_bands:  3 eigenvalues not converged
     c_bands:  2 eigenvalues not converged
     c_bands:  2 eigenvalues not converged
     c_bands:  2 eigenvalues not converged
     c_bands:  1 eigenvalues not converged
     c_bands:  1 eigenvalues not converged
     c_bands:  2 eigenvalues not converged
     c_bands:  2 eigenvalues not converged
     c_bands:  1 eigenvalues not converged
     c_bands:  2 eigenvalues not converged
     c_bands:  1 eigenvalues not converged
     c_bands:  2 eigenvalues not converged
     c_bands:  2 eigenvalues not converged
     c_bands:  1 eigenvalues not converged
     c_bands:  1 eigenvalues not converged
     c_bands:  2 eigenvalues not converged
     ethr =  1.00E-06,  avg # of iterations = 15.6

[...]

     enthalpy old            =    -702.3875410589 Ry
     enthalpy new            =    -702.4227210670 Ry

     CASE: enthalpy_new < enthalpy_old

[...]

     Total force =     0.000025     Total SCF correction =     0.000006
     SCF correction compared to forces is large: reduce conv_thr to get better values

[...]

     Threshold (ethr) on eigenvalues was too large:
     Diagonalizing with lowered threshold

     Davidson diagonalization with overlap
     ethr =  5.96E-08,  avg # of iterations =  1.4

[...]

     number of scf cycles    =  12
     number of bfgs steps    =  11

     enthalpy old            =    -702.4357089233 Ry
     enthalpy new            =    -702.4357089297 Ry

     CASE: enthalpy_new < enthalpy_old

     small trust_radius: resetting bfgs history

     new trust radius        =       0.0000015467 bohr
     new conv_thr            =            1.0E-12 Ry

     new unit-cell volume =    715.41068 a.u.^3 (   106.01292 Ang^3 )

[...]

ATOMIC_POSITIONS (angstrom)
Nb       1.452720770  -2.516186372   4.833733607
Ti       0.000001453  -1.677458420   2.356124265
Ti       1.452720770  -2.516186372   9.606721123
Ti       0.000001453  -1.677458420   7.311342949
Ti       1.452720770  -2.516186372  14.561946912
Nb       0.000001453  -1.677458420  12.084334017

     NEW-OLD atomic charge density approx. for the potential
     extrapolated charge   74.00001, renormalised to   74.00000

[...]

     Threshold (ethr) on eigenvalues was too large:
     Diagonalizing with lowered threshold

     Davidson diagonalization with overlap
     ethr =  9.64E-14,  avg # of iterations =  3.7

[...]

     Total force =     0.000002     Total SCF correction =     0.000002
     SCF correction compared to forces is large: reduce conv_thr to get better values

[...]

     bfgs converged in  13 scf cycles and  12 bfgs steps
     (criteria: energy <  1.0E-10, force <  1.0E-05, cell <  1.0E-03)

     End of BFGS Geometry Optimization

     Final enthalpy =    -702.4357089297 Ry
Begin final coordinates
     new unit-cell volume =    715.41068 a.u.^3 (   106.01292 Ang^3 )

CELL_PARAMETERS (alat=  1.88972599)
  -1.452720770  -2.516186372   0.000000000
   2.905441539  -0.000000000  -0.000000000
   0.000000000  -0.000000000  14.501200821

ATOMIC_POSITIONS (angstrom)
Nb       1.452720770  -2.516186372   4.833733607
Ti       0.000001453  -1.677458420   2.356124265
Ti       1.452720770  -2.516186372   9.606721123
Ti       0.000001453  -1.677458420   7.311342949
Ti       1.452720770  -2.516186372  14.561946912
Nb       0.000001453  -1.677458420  12.084334017
End final coordinates

     A final scf calculation at the relaxed structure.
     The G-vectors are recalculated for the final unit cell
     Results may differ from those at the preceding step.

   Info: using nr1, nr2, nr3 values from input

   Info: using nr1, nr2, nr3 values from input

     bravais-lattice index     =            0
     lattice parameter (alat)  =       1.8897  a.u.
     unit-cell volume          =     715.4107 (a.u.)^3
     number of atoms/cell      =            6
     number of atomic types    =            2
     number of electrons       =        74.00
     number of Kohn-Sham states=           44
     kinetic-energy cutoff     =      40.0000  Ry
     charge density cutoff     =     400.0000  Ry
     convergence threshold     =      1.0E-12
     mixing beta               =       0.6000
     number of iterations used =            8  plain     mixing
     Exchange-correlation      = SLA  PW   PBE  PBE ( 1  4  3  4 0 0)

     celldm(1)=   1.889726  celldm(2)=   0.000000  celldm(3)=   0.000000
     celldm(4)=   0.000000  celldm(5)=   0.000000  celldm(6)=   0.000000

     crystal axes: (cart. coord. in units of alat)
               a(1) = (  -1.452721  -2.516186   0.000000 )
               a(2) = (   2.905442  -0.000000  -0.000000 )
               a(3) = (   0.000000  -0.000000  14.501201 )

     reciprocal axes: (cart. coord. in units 2 pi/alat)
               b(1) = ( -0.000000 -0.397427 -0.000000 )
               b(2) = (  0.344182 -0.198713 -0.000000 )
               b(3) = (  0.000000  0.000000  0.068960 )

     PseudoPot. # 1 for Nb read from file:
     ./Nb.pbe-nsp-van.UPF
     MD5 check sum: 0a22fc7fb0ba19a08ca5db297a5d2854
     Pseudo is Ultrasoft + core correction, Zval = 13.0
     Generated by new atomic code, or converted to UPF format
     Using radial grid of  887 points,  6 beta functions with:
                l(1) =   0
                l(2) =   0
                l(3) =   1
                l(4) =   1
                l(5) =   2
                l(6) =   2
     Q(r) pseudized with  6 coefficients,  rinner =    1.000   1.000   1.000
                                                       1.000   1.000

     PseudoPot. # 2 for Ti read from file:
     ./Ti.pbe-sp-van_ak.UPF
     MD5 check sum: f98fea3e8887528921fefa5636a534ca
     Pseudo is Ultrasoft, Zval = 12.0
     Generated by new atomic code, or converted to UPF format
     Using radial grid of  851 points,  6 beta functions with:
                l(1) =   0
                l(2) =   0
                l(3) =   1
                l(4) =   1
                l(5) =   2
                l(6) =   2
     Q(r) pseudized with  8 coefficients,  rinner =    1.000   1.000   1.000
                                                       1.000   1.000

     atomic species   valence    mass     pseudopotential
        Nb            13.00    92.90638     Nb( 1.00)
        Ti            12.00    47.86700     Ti( 1.00)

     12 Sym. Ops. (no inversion) found ( 6 have fractional translation)
          (note: 12 additional sym.ops. were found but ignored
           their fractional translations are incommensurate with FFT grid)

   Cartesian axes

     site n.     atom                  positions (alat units)
         1           Nb  tau(   1) = (   1.4527209  -2.5161866   4.8337340  )
         2           Ti  tau(   2) = (   0.0000015  -1.6774585   2.3561244  )
         3           Ti  tau(   3) = (   1.4527209  -2.5161866   9.6067219  )
         4           Ti  tau(   4) = (   0.0000015  -1.6774585   7.3113435  )
         5           Ti  tau(   5) = (   1.4527209  -2.5161866  14.5619480  )
         6           Nb  tau(   6) = (   0.0000015  -1.6774585  12.0843349  )

     number of k points=   120  Marzari-Vanderbilt smearing, width (Ry)=  0.0200

     Number of k-points >= 100: set verbosity='high' to print them.

     Initial potential from superposition of free atoms

     starting charge   69.99436, renormalised to   74.00000
     Starting wfc are   66 randomized atomic wfcs

     Self-consistent Calculation

[...]

     iteration # 13     ecut=    40.00 Ry     beta=0.60
     Davidson diagonalization with overlap
     c_bands:  1 eigenvalues not converged
     ethr =  1.22E-06,  avg # of iterations =  6.0

[...]

     total energy              =    -702.43090918 Ry
     Harris-Foulkes estimate   =    -702.43090918 Ry
     estimated scf accuracy    <          1.7E-12 Ry

     iteration # 26     ecut=    40.00 Ry     beta=0.60
     Davidson diagonalization with overlap
     ethr =  1.00E-13,  avg # of iterations =  1.0

     End of self-consistent calculation

     Number of k-points >= 100: set verbosity='high' to print the bands.

     the Fermi energy is    14.9825 ev

!    total energy              =    -702.43090918 Ry
     Harris-Foulkes estimate   =    -702.43090918 Ry
     estimated scf accuracy    <          3.9E-13 Ry

     The total energy is the sum of the following terms:

     one-electron contribution =    -200.11646345 Ry
     hartree contribution      =     128.29896618 Ry
     xc contribution           =     -94.94128976 Ry
     ewald contribution        =    -535.66926677 Ry
     smearing contrib. (-TS)   =      -0.00285538 Ry

     convergence has been achieved in  26 iterations

     Forces acting on atoms (Ry/au):

     atom    1 type  1   force =    -0.00000000   -0.00000000   -0.00000000
     atom    2 type  2   force =     0.00000000    0.00000000    0.00007538
     atom    3 type  2   force =     0.00000000    0.00000000    0.00007557
     atom    4 type  2   force =    -0.00000000   -0.00000000   -0.00007538
     atom    5 type  2   force =    -0.00000000    0.00000000   -0.00007557
     atom    6 type  1   force =     0.00000000    0.00000000    0.00000000

     Total force =     0.000151     Total SCF correction =     0.000002

     entering subroutine stress ...

          total   stress  (Ry/bohr**3)                   (kbar)     P=   -4.81
  -0.00003449  -0.00000000   0.00000000         -5.07     -0.00      0.00
  -0.00000000  -0.00003449   0.00000000         -0.00     -5.07      0.00
   0.00000000  -0.00000000  -0.00002902          0.00     -0.00     -4.27

     General routines

     Parallel routines

   This run was terminated on:  13: 1:46   4Mar2020

   JOB DONE.