     Program PWSCF v.6.3MaX starts on 25Jan2020 at 11:57: 7

     R & G space division:  proc/nbgrp/npool/nimage =       4
     Waiting for input...
     Reading input from standard input

     Current dimensions of program PWSCF are:
     Max number of different atomic species (ntypx) = 10
     Max number of k-points (npk) =  40000
     Max angular momentum in pseudopotentials (lmaxx) =  3
     Message from routine iosys:
     minimal I/O required, wf_collect reset to FALSE

     Subspace diagonalization in iterative solution of the eigenvalue problem:
     a serial algorithm will be used

     bravais-lattice index     =            0
     lattice parameter (alat)  =       1.8897  a.u.
     unit-cell volume          =     880.0102 (a.u.)^3
     number of atoms/cell      =            6
     number of atomic types    =            2
     number of electrons       =        77.00
     number of Kohn-Sham states=           47
     kinetic-energy cutoff     =      50.0000  Ry
     charge density cutoff     =     500.0000  Ry
     convergence threshold     =      1.0E-10
     mixing beta               =       0.6000
     number of iterations used =            8  plain     mixing
     Exchange-correlation      = SLA PW PBE PBE ( 1  4  3  4 0 0)
     nstep                     =           50

     celldm(1)=   1.889726  celldm(2)=   0.000000  celldm(3)=   0.000000
     celldm(4)=   0.000000  celldm(5)=   0.000000  celldm(6)=   0.000000

     crystal axes: (cart. coord. in units of alat)
               a(1) = (  -1.758031  -1.758031   1.758031 )
               a(2) = (   3.516063  -3.516063   0.000000 )
               a(3) = (   3.516063   3.516063   7.032126 )

     reciprocal axes: (cart. coord. in units 2 pi/alat)
               b(1) = ( -0.189606 -0.189606  0.189606 )
               b(2) = (  0.142205 -0.142205  0.000000 )
               b(3) = (  0.047402  0.047402  0.094803 )

     PseudoPot. # 1 for Nb read from file:
     ./Nb.pbe-nsp-van.UPF
     MD5 check sum: 0a22fc7fb0ba19a08ca5db297a5d2854
     Pseudo is Ultrasoft + core correction, Zval = 13.0
     Generated by new atomic code, or converted to UPF format
     Using radial grid of  887 points,  6 beta functions with:
                l(1) =   0
                l(2) =   0
                l(3) =   1
                l(4) =   1
                l(5) =   2
                l(6) =   2
     Q(r) pseudized with  6 coefficients,  rinner =    1.000   1.000   1.000
                                                       1.000   1.000

     PseudoPot. # 2 for Ti read from file:
     ./Ti.pbe-sp-van_ak.UPF
     MD5 check sum: f98fea3e8887528921fefa5636a534ca
     Pseudo is Ultrasoft, Zval = 12.0
     Generated by new atomic code, or converted to UPF format
     Using radial grid of  851 points,  6 beta functions with:
                l(1) =   0
                l(2) =   0
                l(3) =   1
                l(4) =   1
                l(5) =   2
                l(6) =   2
     Q(r) pseudized with  8 coefficients,  rinner =    1.000   1.000   1.000
                                                       1.000   1.000

     atomic species   valence    mass     pseudopotential
        Nb            13.00    92.90638     Nb( 1.00)
        Ti            12.00    47.86700     Ti( 1.00)

      4 Sym. Ops., with inversion, found ( 2 have fractional translation)

   Cartesian axes

     site n.     atom                  positions (alat units)
         1           Ti  tau(   1) = (   3.5160633  -3.5160633   3.5160633  )
         2           Nb  tau(   2) = (   1.7580316  -1.7580316   5.2740949  )
         3           Nb  tau(   3) = (   5.2740949  -1.7580316   5.2740949  )
         4           Nb  tau(   4) = (   3.5160633   0.0000000   7.0321265  )
         5           Nb  tau(   5) = (   5.2740949  -1.7580316   8.7901582  )
         6           Nb  tau(   6) = (   1.7580316  -1.7580316   1.7580316  )

     number of k points=   384  Marzari-Vanderbilt smearing, width (Ry)=  0.0200

     Number of k-points >= 100: set verbosity='high' to print them.

     Initial potential from superposition of free atoms

     starting charge   75.98629, renormalised to   77.00000
     Starting wfcs are   75 randomized atomic wfcs

     Self-consistent Calculation

     iteration #  1     ecut=    50.00 Ry     beta= 0.60
     Davidson diagonalization with overlap
     ethr =  1.00E-02,  avg # of iterations =  2.6

     total energy              =    -648.16803224 Ry
     Harris-Foulkes estimate   =    -711.19235792 Ry
     estimated scf accuracy    <      77.23631247 Ry

[...]

     End of self-consistent calculation

     Number of k-points >= 100: set verbosity='high' to print the bands.

     the Fermi energy is    13.6500 ev

!    total energy              =    -706.18273739 Ry
     Harris-Foulkes estimate   =    -706.18273739 Ry
     estimated scf accuracy    <          9.5E-12 Ry

     The total energy is the sum of the following terms:

     one-electron contribution =    -173.17545211 Ry
     hartree contribution      =     113.95179973 Ry
     xc contribution           =    -105.62436225 Ry
     ewald contribution        =    -541.33555629 Ry
     smearing contrib. (-TS)   =       0.00083353 Ry

     convergence has been achieved in  36 iterations

     Forces acting on atoms (cartesian axes, Ry/au):

     atom    1 type  2   force =     0.00000000    0.00000000    0.00000000
     atom    2 type  1   force =    -0.00368686   -0.00368686    0.00949052
     atom    3 type  1   force =     0.00476040    0.00476040    0.00038266
     atom    4 type  1   force =     0.00000000    0.00000000    0.00000000
     atom    5 type  1   force =    -0.00476040   -0.00476040   -0.00038266
     atom    6 type  1   force =     0.00368686    0.00368686   -0.00949052

     Total force =     0.018040     Total SCF correction =     0.000005

     Computing stress (Cartesian axis) and pressure

          total   stress  (Ry/bohr**3)                   (kbar)     P= -214.99
  -0.00145938  -0.00000671   0.00001362       -214.68     -0.99      2.00
  -0.00000671  -0.00145938   0.00001362         -0.99   -214.68      2.00
   0.00001362   0.00001362  -0.00146559          2.00      2.00   -215.60

     BFGS Geometry Optimization

     number of scf cycles    =   1
     number of bfgs steps    =   0

     enthalpy new            =    -706.1827373900 Ry

     new trust radius        =       0.2174021404 bohr
     new conv_thr            =            1.0E-10 Ry

     new unit-cell volume =    787.03422 a.u.^3 (   116.62644 Ang^3 )
     density =      7.29559 g/cm^3

CELL_PARAMETERS (alat=  1.88972599)
  -1.692996592  -1.692996592   1.692420211
   3.388370953  -3.388370953   0.000000000
   3.389585569   3.389585569   6.776865613

ATOMIC_POSITIONS (angstrom)
Ti       3.389568414  -3.387173492   3.387235345
Nb       1.694103886  -1.694267067   5.085689844
Nb       5.086189300  -1.690552607   5.082247271
Nb       3.390175722   0.001804769   6.775668152
Nb       5.082533098  -1.694208808   8.469089033
Nb       1.696661990  -1.691708963   1.688780847

     NEW-OLD atomic charge density approx. for the potential
     extrapolated charge   68.02339, renormalised to   77.00000

[...]

     iteration #  1     ecut=    50.00 Ry     beta= 0.60
     Davidson diagonalization with overlap
     c_bands:  1 eigenvalues not converged
     c_bands:  1 eigenvalues not converged
     c_bands:  1 eigenvalues not converged
     c_bands:  1 eigenvalues not converged
     c_bands:  1 eigenvalues not converged
     c_bands:  1 eigenvalues not converged
     c_bands:  1 eigenvalues not converged
     c_bands:  1 eigenvalues not converged
     c_bands:  1 eigenvalues not converged
     c_bands:  2 eigenvalues not converged
     c_bands:  2 eigenvalues not converged
     c_bands:  1 eigenvalues not converged
     c_bands:  1 eigenvalues not converged
     c_bands:  1 eigenvalues not converged
     c_bands:  1 eigenvalues not converged
     c_bands:  1 eigenvalues not converged
     c_bands:  1 eigenvalues not converged
     c_bands:  1 eigenvalues not converged
     c_bands:  1 eigenvalues not converged
     c_bands:  1 eigenvalues not converged
     c_bands:  1 eigenvalues not converged
     c_bands:  1 eigenvalues not converged
     c_bands:  1 eigenvalues not converged
     c_bands:  1 eigenvalues not converged
     c_bands:  2 eigenvalues not converged
     c_bands:  1 eigenvalues not converged
     c_bands:  1 eigenvalues not converged
     c_bands:  1 eigenvalues not converged
     c_bands:  1 eigenvalues not converged
     c_bands:  1 eigenvalues not converged
     c_bands:  1 eigenvalues not converged
     c_bands:  1 eigenvalues not converged
     c_bands:  1 eigenvalues not converged
     c_bands:  1 eigenvalues not converged
     c_bands:  1 eigenvalues not converged
     c_bands:  1 eigenvalues not converged
     c_bands:  1 eigenvalues not converged
     c_bands:  1 eigenvalues not converged
     c_bands:  1 eigenvalues not converged
     c_bands:  1 eigenvalues not converged
     c_bands:  1 eigenvalues not converged
     c_bands:  1 eigenvalues not converged
     c_bands:  1 eigenvalues not converged
     c_bands:  1 eigenvalues not converged
     c_bands:  1 eigenvalues not converged
     ethr =  1.00E-06,  avg # of iterations = 14.7

[...]

     enthalpy old            =    -706.1827373900 Ry
     enthalpy new            =    -706.2894566164 Ry

     CASE: enthalpy_new < enthalpy_old

[...]

     WARNING: bfgs curvature condition failed, Theta= 0.936
     new trust radius        =       0.0133009295 bohr
     new conv_thr            =            1.0E-10 Ry

[...]

     Threshold (ethr) on eigenvalues was too large:
     Diagonalizing with lowered threshold

     Davidson diagonalization with overlap
     ethr =  9.88E-08,  avg # of iterations =  1.1

[...]

     Total force =     0.000057     Total SCF correction =     0.000008
     SCF correction compared to forces is large: reduce conv_thr to get better values

[...]

     small trust_radius: resetting bfgs history

[...]

     number of scf cycles    =  24
     number of bfgs steps    =  23

     enthalpy old            =    -706.3165067210 Ry
     enthalpy new            =    -706.3165067280 Ry

     CASE: enthalpy_new < enthalpy_old

     WARNING: bfgs curvature condition failed, Theta= 0.987
     Message from routine bfgs:
     history already reset at previous step: stopping
     small trust_radius: resetting bfgs history

     new trust radius        =       0.0000468145 bohr
     new conv_thr            =            2.0E-12 Ry

     new unit-cell volume =    725.44942 a.u.^3 (   107.50051 Ang^3 )
     density =      7.91492 g/cm^3

[...]

ATOMIC_POSITIONS (angstrom)
Ti       3.293354013  -3.240424554   3.295736350
Nb       1.610510717  -1.656378567   4.979381180
Nb       4.969521157  -1.564257410   4.946720264
Nb       3.350660689   0.083771406   6.618012075
Nb       4.998689504  -1.535089063   8.289303886
Nb       1.709308025  -1.557581259   1.612091520

     NEW-OLD atomic charge density approx. for the potential
     extrapolated charge   76.99998, renormalised to   77.00000

[...]

     Threshold (ethr) on eigenvalues was too large:
     Diagonalizing with lowered threshold

     Davidson diagonalization with overlap
     ethr =  4.99E-13,  avg # of iterations =  4.5

[...]

     Total force =     0.000027     Total SCF correction =     0.000004
     SCF correction compared to forces is large: reduce conv_thr to get better values

[...]

     bfgs converged in  25 scf cycles and  24 bfgs steps
     (criteria: energy <  1.0E-10 Ry, force <  1.0E-05Ry/Bohr, cell <  1.0E-03kbar)

     End of BFGS Geometry Optimization

     Final enthalpy =    -706.3165067330 Ry
Begin final coordinates
     new unit-cell volume =    725.44942 a.u.^3 (   107.50051 Ang^3 )
     density =      7.91492 g/cm^3

CELL_PARAMETERS (alat=  1.88972599)
  -1.651054224  -1.651054224   1.621328800
   3.266889283  -3.266889283   0.000000000
   3.381502636   3.381502636   6.644551450

ATOMIC_POSITIONS (angstrom)
Ti       3.293354013  -3.240424554   3.295736350
Nb       1.610510717  -1.656378567   4.979381180
Nb       4.969521157  -1.564257410   4.946720264
Nb       3.350660689   0.083771406   6.618012075
Nb       4.998689504  -1.535089063   8.289303886
Nb       1.709308025  -1.557581259   1.612091520
End final coordinates

     A final scf calculation at the relaxed structure.
     The G-vectors are recalculated for the final unit cell
     Results may differ from those at the preceding step.

     bravais-lattice index     =            0
     lattice parameter (alat)  =       1.8897  a.u.
     unit-cell volume          =     725.4494 (a.u.)^3
     number of atoms/cell      =            6
     number of atomic types    =            2
     number of electrons       =        77.00
     number of Kohn-Sham states=           47
     kinetic-energy cutoff     =      50.0000  Ry
     charge density cutoff     =     500.0000  Ry
     convergence threshold     =      2.0E-12
     mixing beta               =       0.6000
     number of iterations used =            8  plain     mixing
     Exchange-correlation      = SLA PW PBE PBE ( 1  4  3  4 0 0)

     celldm(1)=   1.889726  celldm(2)=   0.000000  celldm(3)=   0.000000
     celldm(4)=   0.000000  celldm(5)=   0.000000  celldm(6)=   0.000000

     crystal axes: (cart. coord. in units of alat)
               a(1) = (  -1.651054  -1.651054   1.621329 )
               a(2) = (   3.266889  -3.266889   0.000000 )
               a(3) = (   3.381503   3.381503   6.644551 )

     reciprocal axes: (cart. coord. in units 2 pi/alat)
               b(1) = ( -0.201925 -0.201925  0.205524 )
               b(2) = (  0.153051 -0.153051  0.000000 )
               b(3) = (  0.049271  0.049271  0.100349 )

     PseudoPot. # 1 for Nb read from file:
     ./Nb.pbe-nsp-van.UPF
     MD5 check sum: 0a22fc7fb0ba19a08ca5db297a5d2854
     Pseudo is Ultrasoft + core correction, Zval = 13.0
     Generated by new atomic code, or converted to UPF format
     Using radial grid of  887 points,  6 beta functions with:
                l(1) =   0
                l(2) =   0
                l(3) =   1
                l(4) =   1
                l(5) =   2
                l(6) =   2
     Q(r) pseudized with  6 coefficients,  rinner =    1.000   1.000   1.000
                                                       1.000   1.000

     PseudoPot. # 2 for Ti read from file:
     ./Ti.pbe-sp-van_ak.UPF
     MD5 check sum: f98fea3e8887528921fefa5636a534ca
     Pseudo is Ultrasoft, Zval = 12.0
     Generated by new atomic code, or converted to UPF format
     Using radial grid of  851 points,  6 beta functions with:
                l(1) =   0
                l(2) =   0
                l(3) =   1
                l(4) =   1
                l(5) =   2
                l(6) =   2
     Q(r) pseudized with  8 coefficients,  rinner =    1.000   1.000   1.000
                                                       1.000   1.000

     atomic species   valence    mass     pseudopotential
        Nb            13.00    92.90638     Nb( 1.00)
        Ti            12.00    47.86700     Ti( 1.00)

      4 Sym. Ops., with inversion, found ( 2 have fractional translation)

   Cartesian axes

     site n.     atom                  positions (alat units)
         1           Ti  tau(   1) = (   3.2933543  -3.2404248   3.2957366  )
         2           Nb  tau(   2) = (   1.6105108  -1.6563787   4.9793816  )
         3           Nb  tau(   3) = (   4.9695215  -1.5642575   4.9467206  )
         4           Nb  tau(   4) = (   3.3506609   0.0837714   6.6180126  )
         5           Nb  tau(   5) = (   4.9986899  -1.5350892   8.2893045  )
         6           Nb  tau(   6) = (   1.7093082  -1.5575814   1.6120916  )

     number of k points=   384  Marzari-Vanderbilt smearing, width (Ry)=  0.0200

     Number of k-points >= 100: set verbosity='high' to print them.

     Initial potential from superposition of free atoms

     starting charge   75.98629, renormalised to   77.00000
     Starting wfcs are   75 randomized atomic wfcs

     Self-consistent Calculation

[...]

     iteration # 22     ecut=    50.00 Ry     beta= 0.60
     Davidson diagonalization with overlap
     c_bands:  1 eigenvalues not converged
     ethr =  1.11E-05,  avg # of iterations =  2.9

[...]

     total energy              =    -706.31572959 Ry
     Harris-Foulkes estimate   =    -706.31572959 Ry
     estimated scf accuracy    <          8.9E-12 Ry

     iteration # 40     ecut=    50.00 Ry     beta= 0.60
     Davidson diagonalization with overlap
     ethr =  1.00E-13,  avg # of iterations =  1.0

     End of self-consistent calculation

     Number of k-points >= 100: set verbosity='high' to print the bands.

     the Fermi energy is    17.1757 ev

!    total energy              =    -706.31572959 Ry
     Harris-Foulkes estimate   =    -706.31572959 Ry
     estimated scf accuracy    <          7.9E-14 Ry

     The total energy is the sum of the following terms:

     one-electron contribution =    -121.49273417 Ry
     hartree contribution      =      99.24068971 Ry
     xc contribution           =    -106.74767351 Ry
     ewald contribution        =    -577.31739492 Ry
     smearing contrib. (-TS)   =       0.00138330 Ry

     convergence has been achieved in  40 iterations

     Forces acting on atoms (cartesian axes, Ry/au):

     atom    1 type  2   force =     0.00000000    0.00000000    0.00000000
     atom    2 type  1   force =    -0.00000145   -0.00000145    0.00002427
     atom    3 type  1   force =    -0.00000504   -0.00000504    0.00000357
     atom    4 type  1   force =     0.00000000    0.00000000    0.00000000
     atom    5 type  1   force =     0.00000504    0.00000504   -0.00000357
     atom    6 type  1   force =     0.00000145    0.00000145   -0.00002427

     Total force =     0.000036     Total SCF correction =     0.000001

     Computing stress (Cartesian axis) and pressure

          total   stress  (Ry/bohr**3)                   (kbar)     P=   -1.48
  -0.00001023   0.00000002   0.00000023         -1.50      0.00      0.03
   0.00000002  -0.00001023   0.00000023          0.00     -1.50      0.03
   0.00000023   0.00000023  -0.00000977          0.03      0.03     -1.44

     General routines

     Parallel routines

      47h

   This run was terminated on:  21:44:50  25Jan2020

   JOB DONE.