     Program PWSCF v.6.3MaX starts on 21Mar2020 at 19: 0:24

     R & G space division:  proc/nbgrp/npool/nimage =       4
     Waiting for input...
     Reading input from standard input

     Current dimensions of program PWSCF are:
     Max number of different atomic species (ntypx) = 10
     Max number of k-points (npk) =  40000
     Max angular momentum in pseudopotentials (lmaxx) =  3
     Message from routine iosys:
     minimal I/O required, wf_collect reset to FALSE

     Subspace diagonalization in iterative solution of the eigenvalue problem:
     a serial algorithm will be used

     bravais-lattice index     =            0
     lattice parameter (alat)  =       1.8897  a.u.
     unit-cell volume          =    1077.7903 (a.u.)^3
     number of atoms/cell      =            8
     number of atomic types    =            2
     number of electrons       =       100.00
     number of Kohn-Sham states=           60
     kinetic-energy cutoff     =      40.0000  Ry
     charge density cutoff     =     400.0000  Ry
     convergence threshold     =      1.0E-10
     mixing beta               =       0.6000
     number of iterations used =            8  plain     mixing
     Exchange-correlation      = SLA PW PBE PBE ( 1  4  3  4 0 0)
     nstep                     =           50

     celldm(1)=   1.889726  celldm(2)=   0.000000  celldm(3)=   0.000000
     celldm(4)=   0.000000  celldm(5)=   0.000000  celldm(6)=   0.000000

     crystal axes: (cart. coord. in units of alat)
               a(1) = (   1.522502   2.637051   9.944922 )
               a(2) = (  -1.522502  -2.637051   9.944922 )
               a(3) = (   3.045004   0.000000  -9.944922 )

     reciprocal axes: (cart. coord. in units 2 pi/alat)
               b(1) = (  0.164203  0.094803  0.050277 )
               b(2) = (  0.164203 -0.284409  0.050277 )
               b(3) = (  0.328407 -0.189606  0.000000 )

     PseudoPot. # 1 for Nb read from file:
     ./Nb.pbe-nsp-van.UPF
     MD5 check sum: 0a22fc7fb0ba19a08ca5db297a5d2854
     Pseudo is Ultrasoft + core correction, Zval = 13.0
     Generated by new atomic code, or converted to UPF format
     Using radial grid of  887 points,  6 beta functions with:
                l(1) =   0
                l(2) =   0
                l(3) =   1
                l(4) =   1
                l(5) =   2
                l(6) =   2
     Q(r) pseudized with  6 coefficients,  rinner =    1.000   1.000   1.000
                                                       1.000   1.000

     PseudoPot. # 2 for Ti read from file:
     ./Ti.pbe-sp-van_ak.UPF
     MD5 check sum: f98fea3e8887528921fefa5636a534ca
     Pseudo is Ultrasoft, Zval = 12.0
     Generated by new atomic code, or converted to UPF format
     Using radial grid of  851 points,  6 beta functions with:
                l(1) =   0
                l(2) =   0
                l(3) =   1
                l(4) =   1
                l(5) =   2
                l(6) =   2
     Q(r) pseudized with  8 coefficients,  rinner =    1.000   1.000   1.000
                                                       1.000   1.000

     atomic species   valence    mass     pseudopotential
        Nb            13.00    92.90638     Nb( 1.00)
        Ti            12.00    47.86700     Ti( 1.00)

      2 Sym. Ops. (no inversion) found

   Cartesian axes

     site n.     atom                  positions (alat units)
         1           Nb  tau(   1) = (   3.0450042   0.0000000   4.9724614  )
         2           Ti  tau(   2) = (   1.5225036   0.8790162   2.4862307  )
         3           Ti  tau(   3) = (   3.0450042   0.0000000   9.9449228  )
         4           Ti  tau(   4) = (   1.5225036   0.8790162   7.4586921  )
         5           Ti  tau(   5) = (   3.0450042   0.0000000  -4.9724614  )
         6           Nb  tau(   6) = (   1.5225036   0.8790162  12.4311534  )
         7           Nb  tau(   7) = (   3.0450042   0.0000000   0.0000000  )
         8           Nb  tau(   8) = (   0.0000015  -1.7580350   7.4586921  )

     number of k points=   282  Marzari-Vanderbilt smearing, width (Ry)=  0.0200

     Number of k-points >= 100: set verbosity='high' to print them.

     Initial potential from superposition of free atoms

     starting charge   95.98889, renormalised to  100.00000
     Starting wfcs are   92 randomized atomic wfcs

     Self-consistent Calculation

     iteration #  1     ecut=    40.00 Ry     beta= 0.60
     Davidson diagonalization with overlap
     ethr =  1.00E-02,  avg # of iterations =  3.1

     total energy              =    -921.19297403 Ry
     Harris-Foulkes estimate   =    -941.49091421 Ry
     estimated scf accuracy    <      25.69846797 Ry

[...]

     End of self-consistent calculation

     Number of k-points >= 100: set verbosity='high' to print the bands.

     the Fermi energy is    13.8428 ev

!    total energy              =    -938.19094500 Ry
     Harris-Foulkes estimate   =    -938.19094500 Ry
     estimated scf accuracy    <          6.1E-11 Ry

     The total energy is the sum of the following terms:

     one-electron contribution =    -272.54196561 Ry
     hartree contribution      =     170.10647137 Ry
     xc contribution           =    -130.99043617 Ry
     ewald contribution        =    -704.75451045 Ry
     smearing contrib. (-TS)   =      -0.01050414 Ry

     convergence has been achieved in  41 iterations

     Forces acting on atoms (cartesian axes, Ry/au):

     atom    1 type  1   force =     0.00387612    0.00223788   -0.00367177
     atom    2 type  2   force =     0.00043968    0.00025385   -0.00164296
     atom    3 type  2   force =    -0.00115642   -0.00066766   -0.00349976
     atom    4 type  2   force =     0.00115537    0.00066705    0.00355345
     atom    5 type  2   force =    -0.00043928   -0.00025362    0.00160934
     atom    6 type  1   force =    -0.00387655   -0.00223813    0.00366655
     atom    7 type  1   force =     0.00244356    0.00141079    0.00872134
     atom    8 type  1   force =    -0.00244247   -0.00141016   -0.00873619

     Total force =     0.016418     Total SCF correction =     0.000015

     Computing stress (Cartesian axis) and pressure

          total   stress  (Ry/bohr**3)                   (kbar)     P= -126.07
  -0.00089281   0.00003186  -0.00000664       -131.34      4.69     -0.98
   0.00003186  -0.00092959  -0.00000383          4.69   -136.75     -0.56
  -0.00000664  -0.00000383  -0.00074872         -0.98     -0.56   -110.14

     BFGS Geometry Optimization

     number of scf cycles    =   1
     number of bfgs steps    =   0

     enthalpy new            =    -938.1909449992 Ry

     new trust radius        =       0.1526820677 bohr
     new conv_thr            =            1.0E-10 Ry

     new unit-cell volume =   1009.97924 a.u.^3 (   149.66348 Ang^3 )
     density =      6.24761 g/cm^3

CELL_PARAMETERS (alat=  1.88972599)
   1.488969062   2.576026019   9.758268046
  -1.492270410  -2.577932053   9.759278875
   2.978689691   0.003378150  -9.759278875

ATOMIC_POSITIONS (angstrom)
Nb       2.978220316   0.003107156   4.876974212
Ti       1.489036129   0.859693755   2.438503225
Ti       2.974790076   0.001126706   9.756450852
Ti       1.488580785   0.859430862   7.320588226
Ti       2.977636839   0.002770286  -4.879056408
Nb       1.485150869   0.857450600  12.200034275
Nb       2.978303063   0.003154930   0.004023047
Nb      -0.003900146  -1.718622735   7.314712395

     NEW-OLD atomic charge density approx. for the potential

     Check: negative/imaginary core charge=   -0.000001    0.000000
     extrapolated charge   93.55520, renormalised to  100.00000

[...]

     iteration #  1     ecut=    40.00 Ry     beta= 0.60
     Davidson diagonalization with overlap
     c_bands:  1 eigenvalues not converged
     c_bands:  1 eigenvalues not converged
     c_bands:  1 eigenvalues not converged
     c_bands:  1 eigenvalues not converged
     c_bands:  1 eigenvalues not converged
     c_bands:  2 eigenvalues not converged
     c_bands:  1 eigenvalues not converged
     c_bands:  1 eigenvalues not converged
     c_bands:  1 eigenvalues not converged
     c_bands:  1 eigenvalues not converged
     c_bands:  1 eigenvalues not converged
     c_bands:  1 eigenvalues not converged
     c_bands:  2 eigenvalues not converged
     c_bands:  3 eigenvalues not converged
     c_bands:  1 eigenvalues not converged
     c_bands:  1 eigenvalues not converged
     c_bands:  1 eigenvalues not converged
     c_bands:  2 eigenvalues not converged
     c_bands:  1 eigenvalues not converged
     c_bands:  1 eigenvalues not converged
     c_bands:  5 eigenvalues not converged
     c_bands:  1 eigenvalues not converged
     c_bands:  3 eigenvalues not converged
     c_bands:  1 eigenvalues not converged
     c_bands:  1 eigenvalues not converged
     c_bands:  1 eigenvalues not converged
     c_bands:  2 eigenvalues not converged
     c_bands:  1 eigenvalues not converged
     c_bands:  1 eigenvalues not converged
     c_bands:  1 eigenvalues not converged
     c_bands:  1 eigenvalues not converged
     c_bands:  1 eigenvalues not converged
     c_bands:  1 eigenvalues not converged
     c_bands:  1 eigenvalues not converged
     c_bands:  1 eigenvalues not converged
     c_bands:  1 eigenvalues not converged
     c_bands:  1 eigenvalues not converged
     c_bands:  1 eigenvalues not converged
     c_bands:  1 eigenvalues not converged
     c_bands:  1 eigenvalues not converged
     c_bands:  3 eigenvalues not converged
     c_bands:  1 eigenvalues not converged
     c_bands:  5 eigenvalues not converged
     c_bands:  1 eigenvalues not converged
     c_bands:  3 eigenvalues not converged
     c_bands:  1 eigenvalues not converged
     c_bands:  1 eigenvalues not converged
     c_bands:  1 eigenvalues not converged
     c_bands:  1 eigenvalues not converged
     c_bands:  1 eigenvalues not converged
     c_bands:  1 eigenvalues not converged
     c_bands:  1 eigenvalues not converged
     c_bands:  4 eigenvalues not converged
     c_bands:  2 eigenvalues not converged
     c_bands:  1 eigenvalues not converged
     c_bands:  1 eigenvalues not converged
     c_bands:  2 eigenvalues not converged
     c_bands:  4 eigenvalues not converged
     c_bands:  1 eigenvalues not converged
     c_bands:  2 eigenvalues not converged
[...]
     c_bands:  1 eigenvalues not converged
     c_bands:  3 eigenvalues not converged
     c_bands:  1 eigenvalues not converged
     c_bands:  1 eigenvalues not converged
     c_bands:  2 eigenvalues not converged
     c_bands:  4 eigenvalues not converged
     c_bands:  2 eigenvalues not converged
     c_bands:  1 eigenvalues not converged
     c_bands:  2 eigenvalues not converged
     c_bands:  3 eigenvalues not converged
     c_bands:  3 eigenvalues not converged
     c_bands:  1 eigenvalues not converged
     c_bands:  3 eigenvalues not converged
     c_bands:  2 eigenvalues not converged
     c_bands:  3 eigenvalues not converged
     ethr =  1.00E-06,  avg # of iterations = 19.7

[...]

     enthalpy old            =    -938.1909449992 Ry
     enthalpy new            =    -938.2350261624 Ry

     CASE: enthalpy_new < enthalpy_old

[...]

     NEW-OLD atomic charge density approx. for the potential

     Check: negative/imaginary core charge=   -0.000001    0.000000
     extrapolated charge  100.11350, renormalised to  100.00000

[...]

     NEW-OLD atomic charge density approx. for the potential
     extrapolated charge   99.84398, renormalised to  100.00000

[...]

     WARNING: bfgs curvature condition failed, Theta= 0.929
     new trust radius        =       0.0209405891 bohr
     new conv_thr            =            1.0E-10 Ry

[...]

     WARNING: bfgs curvature condition failed, Theta= 0.925
     new trust radius        =       0.0302167105 bohr
     new conv_thr            =            1.0E-10 Ry

[...]

     Threshold (ethr) on eigenvalues was too large:
     Diagonalizing with lowered threshold

     Davidson diagonalization with overlap
     ethr =  3.35E-08,  avg # of iterations =  1.2

[...]

     Total force =     0.000041     Total SCF correction =     0.000007
     SCF correction compared to forces is large: reduce conv_thr to get better values

[...]

     small trust_radius: resetting bfgs history

[...]

     Total force =     0.000027     Total SCF correction =     0.000003
     SCF correction compared to forces is large: reduce conv_thr to get better values

[...]

     number of scf cycles    =  40
     number of bfgs steps    =  39

     enthalpy old            =    -938.2758132799 Ry
     enthalpy new            =    -938.2758132812 Ry

     CASE: enthalpy_new < enthalpy_old

     WARNING: bfgs curvature condition failed, Theta= 0.985
     Message from routine bfgs:
     history already reset at previous step: stopping
     small trust_radius: resetting bfgs history

     new trust radius        =       0.0000151375 bohr
     new conv_thr            =            1.4E-12 Ry

     new unit-cell volume =    959.54003 a.u.^3 (   142.18916 Ang^3 )
     density =      6.57602 g/cm^3

[...]

ATOMIC_POSITIONS (angstrom)
Nb       3.155388576   0.230264193   4.793917517
Ti       1.390979087   0.803080622   2.397882339
Ti       3.162153824   0.234170110   9.577174724
Ti       1.404389774   0.810823285   7.208862907
Ti       3.175995660   0.242161700  -4.811493326
Nb       1.411154046   0.814728637  11.992157007
Nb       3.199419506   0.255685462  -0.003707632
Nb      -0.270184023  -1.747492768   7.198133893

     NEW-OLD atomic charge density approx. for the potential
     extrapolated charge   99.99987, renormalised to  100.00000

[...]

     Threshold (ethr) on eigenvalues was too large:
     Diagonalizing with lowered threshold

     Davidson diagonalization with overlap
     ethr =  1.19E-11,  avg # of iterations =  3.0

[...]

     bfgs converged in  41 scf cycles and  40 bfgs steps
     (criteria: energy <  1.0E-10 Ry, force <  1.0E-05Ry/Bohr, cell <  1.0E-03kbar)

     End of BFGS Geometry Optimization

     Final enthalpy =    -938.2758132819 Ry
Begin final coordinates
     new unit-cell volume =    959.54003 a.u.^3 (   142.18916 Ang^3 )
     density =      6.57602 g/cm^3

CELL_PARAMETERS (alat=  1.88972599)
   1.637312358   2.536803151   9.591653606
  -1.637747365  -2.537054305   9.608077990
   3.016027000   0.149803757  -9.608077989

ATOMIC_POSITIONS (angstrom)
Nb       3.155388576   0.230264193   4.793917517
Ti       1.390979087   0.803080622   2.397882339
Ti       3.162153824   0.234170110   9.577174724
Ti       1.404389774   0.810823285   7.208862907
Ti       3.175995660   0.242161700  -4.811493326
Nb       1.411154046   0.814728637  11.992157007
Nb       3.199419506   0.255685462  -0.003707632
Nb      -0.270184023  -1.747492768   7.198133893
End final coordinates

     A final scf calculation at the relaxed structure.
     The G-vectors are recalculated for the final unit cell
     Results may differ from those at the preceding step.

     bravais-lattice index     =            0
     lattice parameter (alat)  =       1.8897  a.u.
     unit-cell volume          =     959.5400 (a.u.)^3
     number of atoms/cell      =            8
     number of atomic types    =            2
     number of electrons       =       100.00
     number of Kohn-Sham states=           60
     kinetic-energy cutoff     =      40.0000  Ry
     charge density cutoff     =     400.0000  Ry
     convergence threshold     =      1.4E-12
     mixing beta               =       0.6000
     number of iterations used =            8  plain     mixing
     Exchange-correlation      = SLA PW PBE PBE ( 1  4  3  4 0 0)

     celldm(1)=   1.889726  celldm(2)=   0.000000  celldm(3)=   0.000000
     celldm(4)=   0.000000  celldm(5)=   0.000000  celldm(6)=   0.000000

     crystal axes: (cart. coord. in units of alat)
               a(1) = (   1.637312   2.536803   9.591654 )
               a(2) = (  -1.637747  -2.537054   9.608078 )
               a(3) = (   3.016027   0.149804  -9.608078 )

     reciprocal axes: (cart. coord. in units 2 pi/alat)
               b(1) = (  0.161312  0.093134  0.052089 )
               b(2) = (  0.181523 -0.314089  0.052084 )
               b(3) = (  0.342560 -0.221115  0.000005 )

     PseudoPot. # 1 for Nb read from file:
     ./Nb.pbe-nsp-van.UPF
     MD5 check sum: 0a22fc7fb0ba19a08ca5db297a5d2854
     Pseudo is Ultrasoft + core correction, Zval = 13.0
     Generated by new atomic code, or converted to UPF format
     Using radial grid of  887 points,  6 beta functions with:
                l(1) =   0
                l(2) =   0
                l(3) =   1
                l(4) =   1
                l(5) =   2
                l(6) =   2
     Q(r) pseudized with  6 coefficients,  rinner =    1.000   1.000   1.000
                                                       1.000   1.000

     PseudoPot. # 2 for Ti read from file:
     ./Ti.pbe-sp-van_ak.UPF
     MD5 check sum: f98fea3e8887528921fefa5636a534ca
     Pseudo is Ultrasoft, Zval = 12.0
     Generated by new atomic code, or converted to UPF format
     Using radial grid of  851 points,  6 beta functions with:
                l(1) =   0
                l(2) =   0
                l(3) =   1
                l(4) =   1
                l(5) =   2
                l(6) =   2
     Q(r) pseudized with  8 coefficients,  rinner =    1.000   1.000   1.000
                                                       1.000   1.000

     atomic species   valence    mass     pseudopotential
        Nb            13.00    92.90638     Nb( 1.00)
        Ti            12.00    47.86700     Ti( 1.00)

      2 Sym. Ops. (no inversion) found

   Cartesian axes

     site n.     atom                  positions (alat units)
         1           Nb  tau(   1) = (   3.1553888   0.2302642   4.7939179  )
         2           Ti  tau(   2) = (   1.3909792   0.8030807   2.3978825  )
         3           Ti  tau(   3) = (   3.1621541   0.2341701   9.5771755  )
         4           Ti  tau(   4) = (   1.4043899   0.8108233   7.2088635  )
         5           Ti  tau(   5) = (   3.1759959   0.2421617  -4.8114937  )
         6           Nb  tau(   6) = (   1.4111542   0.8147287  11.9921579  )
         7           Nb  tau(   7) = (   3.1994198   0.2556855  -0.0037076  )
         8           Nb  tau(   8) = (  -0.2701840  -1.7474929   7.1981344  )

     number of k points=   282  Marzari-Vanderbilt smearing, width (Ry)=  0.0200

     Number of k-points >= 100: set verbosity='high' to print them.

     Initial potential from superposition of free atoms

     starting charge   95.98889, renormalised to  100.00000
     Starting wfcs are   92 randomized atomic wfcs

     Self-consistent Calculation

[...]

     iteration # 22     ecut=    40.00 Ry     beta= 0.60
     Davidson diagonalization with overlap
     c_bands:  1 eigenvalues not converged
     ethr =  5.52E-07,  avg # of iterations =  6.2

[...]

     total energy              =    -938.27139693 Ry
     Harris-Foulkes estimate   =    -938.27139693 Ry
     estimated scf accuracy    <          2.2E-12 Ry

     iteration # 43     ecut=    40.00 Ry     beta= 0.60
     Davidson diagonalization with overlap
     ethr =  1.00E-13,  avg # of iterations =  1.0

     End of self-consistent calculation

     Number of k-points >= 100: set verbosity='high' to print the bands.

     the Fermi energy is    15.6986 ev

!    total energy              =    -938.27139693 Ry
     Harris-Foulkes estimate   =    -938.27139693 Ry
     estimated scf accuracy    <          5.1E-13 Ry

     The total energy is the sum of the following terms:

     one-electron contribution =    -233.30609616 Ry
     hartree contribution      =     158.66388938 Ry
     xc contribution           =    -131.84307424 Ry
     ewald contribution        =    -731.78582776 Ry
     smearing contrib. (-TS)   =      -0.00028815 Ry

     convergence has been achieved in  43 iterations

     Forces acting on atoms (cartesian axes, Ry/au):

     atom    1 type  1   force =     0.00000826    0.00000477   -0.00000216
     atom    2 type  2   force =     0.00009924    0.00005730    0.00005438
     atom    3 type  2   force =    -0.00002187   -0.00001262   -0.00016128
     atom    4 type  2   force =     0.00002320    0.00001339    0.00010900
     atom    5 type  2   force =    -0.00010104   -0.00005834   -0.00000380
     atom    6 type  1   force =    -0.00000781   -0.00000451    0.00000261
     atom    7 type  1   force =     0.00000348    0.00000201   -0.00007135
     atom    8 type  1   force =    -0.00000345   -0.00000199    0.00007260

     Total force =     0.000282     Total SCF correction =     0.000002

     Computing stress (Cartesian axis) and pressure

          total   stress  (Ry/bohr**3)                   (kbar)     P=   -2.74
  -0.00001132   0.00001174  -0.00000027         -1.67      1.73     -0.04
   0.00001174  -0.00002488  -0.00000016          1.73     -3.66     -0.02
  -0.00000027  -0.00000016  -0.00001958         -0.04     -0.02     -2.88

     General routines

     Parallel routines

   This run was terminated on:  16:46:48  23Mar2020

   JOB DONE.