     Program PWSCF v.6.3MaX starts on 11Feb2020 at 18:38:40

     R & G space division:  proc/nbgrp/npool/nimage =       4
     Waiting for input...
     Reading input from standard input

     Current dimensions of program PWSCF are:
     Max number of different atomic species (ntypx) = 10
     Max number of k-points (npk) =  40000
     Max angular momentum in pseudopotentials (lmaxx) =  3
     Message from routine iosys:
     minimal I/O required, wf_collect reset to FALSE

     Subspace diagonalization in iterative solution of the eigenvalue problem:
     a serial algorithm will be used

     bravais-lattice index     =            0
     lattice parameter (alat)  =       1.8897  a.u.
     unit-cell volume          =     808.3427 (a.u.)^3
     number of atoms/cell      =            6
     number of atomic types    =            2
     number of electrons       =        75.00
     number of Kohn-Sham states=           46
     kinetic-energy cutoff     =      40.0000  Ry
     charge density cutoff     =     400.0000  Ry
     convergence threshold     =      1.0E-10
     mixing beta               =       0.6000
     number of iterations used =            8  plain     mixing
     Exchange-correlation      = SLA PW PBE PBE ( 1  4  3  4 0 0)
     nstep                     =           50

     celldm(1)=   1.889726  celldm(2)=   0.000000  celldm(3)=   0.000000
     celldm(4)=   0.000000  celldm(5)=   0.000000  celldm(6)=   0.000000

     crystal axes: (cart. coord. in units of alat)
               a(1) = (   3.045004   0.000000   4.972461 )
               a(2) = (  -1.522502   2.637051   4.972461 )
               a(3) = (  -1.522502  -2.637051   4.972461 )

     reciprocal axes: (cart. coord. in units 2 pi/alat)
               b(1) = (  0.218938  0.000000  0.067036 )
               b(2) = ( -0.109469  0.189606  0.067036 )
               b(3) = ( -0.109469 -0.189606  0.067036 )

     PseudoPot. # 1 for Nb read from file:
     ./Nb.pbe-nsp-van.UPF
     MD5 check sum: 0a22fc7fb0ba19a08ca5db297a5d2854
     Pseudo is Ultrasoft + core correction, Zval = 13.0
     Generated by new atomic code, or converted to UPF format
     Using radial grid of  887 points,  6 beta functions with:
                l(1) =   0
                l(2) =   0
                l(3) =   1
                l(4) =   1
                l(5) =   2
                l(6) =   2
     Q(r) pseudized with  6 coefficients,  rinner =    1.000   1.000   1.000
                                                       1.000   1.000

     PseudoPot. # 2 for Ti read from file:
     ./Ti.pbe-sp-van_ak.UPF
     MD5 check sum: f98fea3e8887528921fefa5636a534ca
     Pseudo is Ultrasoft, Zval = 12.0
     Generated by new atomic code, or converted to UPF format
     Using radial grid of  851 points,  6 beta functions with:
                l(1) =   0
                l(2) =   0
                l(3) =   1
                l(4) =   1
                l(5) =   2
                l(6) =   2
     Q(r) pseudized with  8 coefficients,  rinner =    1.000   1.000   1.000
                                                       1.000   1.000

     atomic species   valence    mass     pseudopotential
        Nb            13.00    92.90638     Nb( 1.00)
        Ti            12.00    47.86700     Ti( 1.00)

      2 Sym. Ops. (no inversion) found ( 1 have fractional translation)

   Cartesian axes

     site n.     atom                  positions (alat units)
         1           Ti  tau(   1) = (   0.0000000   0.0000000   9.9449228  )
         2           Ti  tau(   2) = (   0.0000015  -1.7580350   7.4586921  )
         3           Ti  tau(   3) = (   0.0000000   0.0000000  14.9173841  )
         4           Nb  tau(   4) = (   1.5225036   0.8790162   7.4586921  )
         5           Nb  tau(   5) = (   0.0000000   0.0000000   4.9724614  )
         6           Nb  tau(   6) = (  -1.5225006   0.8790162   7.4586921  )

     number of k points=   476  Marzari-Vanderbilt smearing, width (Ry)=  0.0200

     Number of k-points >= 100: set verbosity='high' to print them.

     Initial potential from superposition of free atoms

     starting charge   71.99167, renormalised to   75.00000
     Starting wfcs are   69 randomized atomic wfcs

     Self-consistent Calculation

     iteration #  1     ecut=    40.00 Ry     beta= 0.60
     Davidson diagonalization with overlap
     ethr =  1.00E-02,  avg # of iterations =  3.0

     total energy              =    -692.14992718 Ry
     Harris-Foulkes estimate   =    -706.02179004 Ry
     estimated scf accuracy    <      17.61456772 Ry

[...]

     End of self-consistent calculation

     Number of k-points >= 100: set verbosity='high' to print the bands.

     the Fermi energy is    13.8339 ev

!    total energy              =    -703.64388937 Ry
     Harris-Foulkes estimate   =    -703.64388937 Ry
     estimated scf accuracy    <          4.1E-11 Ry

     The total energy is the sum of the following terms:

     one-electron contribution =    -204.40281262 Ry
     hartree contribution      =     127.58025029 Ry
     xc contribution           =     -98.24442678 Ry
     ewald contribution        =    -528.57073891 Ry
     smearing contrib. (-TS)   =      -0.00616135 Ry

     convergence has been achieved in  31 iterations

     Forces acting on atoms (cartesian axes, Ry/au):

     atom    1 type  2   force =     0.00005025    0.00009357   -0.00185519
     atom    2 type  2   force =    -0.00005897    0.00003405    0.00000000
     atom    3 type  2   force =    -0.00005591   -0.00009030    0.00185519
     atom    4 type  1   force =    -0.00000807   -0.00037044    0.00389650
     atom    5 type  1   force =    -0.00024407    0.00014092    0.00000000
     atom    6 type  1   force =     0.00031678    0.00019221   -0.00389650

     Total force =     0.006134     Total SCF correction =     0.000005

     Computing stress (Cartesian axis) and pressure

          total   stress  (Ry/bohr**3)                   (kbar)     P= -126.17
  -0.00090820   0.00000024  -0.00000522       -133.60      0.03     -0.77
   0.00000024  -0.00090793  -0.00000905          0.03   -133.56     -1.33
  -0.00000522  -0.00000905  -0.00075691         -0.77     -1.33   -111.35

     BFGS Geometry Optimization

     number of scf cycles    =   1
     number of bfgs steps    =   0

     enthalpy new            =    -703.6438893676 Ry

     new trust radius        =       0.1291090054 bohr
     new conv_thr            =            1.0E-10 Ry

     new unit-cell volume =    757.44853 a.u.^3 (   112.24229 Ang^3 )
     density =      6.24790 g/cm^3

CELL_PARAMETERS (alat=  1.88972599)
   2.975217999  -0.001106312   4.877970904
  -1.488567093   2.576061398   4.877970904
  -1.488598428  -2.578328294   4.879163515

ATOMIC_POSITIONS (angstrom)
Ti      -0.001272233  -0.002200191   9.755773718
Ti      -0.001013215  -1.719799753   7.317950199
Ti      -0.001976566  -0.003420132  14.636068487
Nb       1.486962093   0.857194486   7.319178092
Nb      -0.000775399  -0.001051527   4.878368441
Nb      -1.488736543   0.857468311   7.315529693

     NEW-OLD atomic charge density approx. for the potential

     Check: negative/imaginary core charge=   -0.000001    0.000000
     extrapolated charge   70.16276, renormalised to   75.00000

[...]

     iteration #  1     ecut=    40.00 Ry     beta= 0.60
     Davidson diagonalization with overlap
     c_bands:  1 eigenvalues not converged
     c_bands:  1 eigenvalues not converged
     c_bands:  1 eigenvalues not converged
     c_bands:  1 eigenvalues not converged
     c_bands:  1 eigenvalues not converged
     c_bands:  1 eigenvalues not converged
     c_bands:  1 eigenvalues not converged
     c_bands:  1 eigenvalues not converged
     c_bands:  2 eigenvalues not converged
     c_bands:  1 eigenvalues not converged
     c_bands:  1 eigenvalues not converged
     c_bands:  1 eigenvalues not converged
     c_bands:  1 eigenvalues not converged
     c_bands:  1 eigenvalues not converged
     c_bands:  1 eigenvalues not converged
     c_bands:  1 eigenvalues not converged
     c_bands:  1 eigenvalues not converged
     c_bands:  1 eigenvalues not converged
     c_bands:  1 eigenvalues not converged
     c_bands:  1 eigenvalues not converged
     c_bands:  1 eigenvalues not converged
     c_bands:  1 eigenvalues not converged
     c_bands:  1 eigenvalues not converged
     c_bands:  1 eigenvalues not converged
     c_bands:  1 eigenvalues not converged
     c_bands:  1 eigenvalues not converged
     c_bands:  1 eigenvalues not converged
     c_bands:  1 eigenvalues not converged
     c_bands:  1 eigenvalues not converged
     c_bands:  2 eigenvalues not converged
     c_bands:  1 eigenvalues not converged
     c_bands:  1 eigenvalues not converged
     c_bands:  2 eigenvalues not converged
     c_bands:  2 eigenvalues not converged
     c_bands:  1 eigenvalues not converged
     c_bands:  2 eigenvalues not converged
     c_bands:  1 eigenvalues not converged
     c_bands:  1 eigenvalues not converged
     c_bands:  1 eigenvalues not converged
     c_bands:  1 eigenvalues not converged
     c_bands:  1 eigenvalues not converged
     c_bands:  1 eigenvalues not converged
     c_bands:  1 eigenvalues not converged
     c_bands:  1 eigenvalues not converged
     c_bands:  1 eigenvalues not converged
     c_bands:  1 eigenvalues not converged
     c_bands:  2 eigenvalues not converged
     c_bands:  1 eigenvalues not converged
     c_bands:  1 eigenvalues not converged
     c_bands:  1 eigenvalues not converged
     c_bands:  2 eigenvalues not converged
     c_bands:  1 eigenvalues not converged
     c_bands:  2 eigenvalues not converged
     c_bands:  1 eigenvalues not converged
     c_bands:  1 eigenvalues not converged
     c_bands:  1 eigenvalues not converged
     c_bands:  2 eigenvalues not converged
     c_bands:  2 eigenvalues not converged
     c_bands:  1 eigenvalues not converged
     c_bands:  1 eigenvalues not converged
[...]
     c_bands:  1 eigenvalues not converged
     c_bands:  1 eigenvalues not converged
     c_bands:  1 eigenvalues not converged
     c_bands:  1 eigenvalues not converged
     c_bands:  1 eigenvalues not converged
     c_bands:  1 eigenvalues not converged
     c_bands:  1 eigenvalues not converged
     c_bands:  1 eigenvalues not converged
     c_bands:  1 eigenvalues not converged
     c_bands:  1 eigenvalues not converged
     c_bands:  1 eigenvalues not converged
     c_bands:  1 eigenvalues not converged
     c_bands:  1 eigenvalues not converged
     c_bands:  1 eigenvalues not converged
     c_bands:  1 eigenvalues not converged
     ethr =  1.00E-06,  avg # of iterations = 18.5

[...]

     enthalpy old            =    -703.6438893676 Ry
     enthalpy new            =    -703.6766929088 Ry

     CASE: enthalpy_new < enthalpy_old

[...]

     NEW-OLD atomic charge density approx. for the potential
     extrapolated charge   74.82438, renormalised to   75.00000

[...]

     NEW-OLD atomic charge density approx. for the potential

     Check: negative/imaginary core charge=   -0.000001    0.000000
     extrapolated charge   75.23219, renormalised to   75.00000

[...]

     iteration #  2     ecut=    40.00 Ry     beta= 0.60
     Davidson diagonalization with overlap
     c_bands:  1 eigenvalues not converged
     c_bands:  1 eigenvalues not converged
     c_bands:  1 eigenvalues not converged
     ethr =  4.45E-06,  avg # of iterations =  5.6

[...]

     Threshold (ethr) on eigenvalues was too large:
     Diagonalizing with lowered threshold

     Davidson diagonalization with overlap
     ethr =  3.06E-08,  avg # of iterations =  2.1

[...]

     small trust_radius: resetting bfgs history

[...]

     Self-consistent Calculation

[...]

     Threshold (ethr) on eigenvalues was too large:
     Diagonalizing with lowered threshold

     Davidson diagonalization with overlap
     ethr =  1.97E-11,  avg # of iterations =  1.8

[...]

     total energy              =    -703.73848693 Ry
     Harris-Foulkes estimate   =    -703.73848693 Ry
     estimated scf accuracy    <          1.0E-12 Ry

     iteration # 15     ecut=    40.00 Ry     beta= 0.60
     Davidson diagonalization with overlap
     ethr =  1.00E-13,  avg # of iterations =  1.0

     End of self-consistent calculation

     Number of k-points >= 100: set verbosity='high' to print the bands.

     the Fermi energy is    15.7472 ev

!    total energy              =    -703.73848693 Ry
     Harris-Foulkes estimate   =    -703.73848693 Ry
     estimated scf accuracy    <          3.2E-13 Ry

     The total energy is the sum of the following terms:

     one-electron contribution =    -171.31925931 Ry
     hartree contribution      =     118.03393760 Ry
     xc contribution           =     -98.98180298 Ry
     ewald contribution        =    -551.47152887 Ry
     smearing contrib. (-TS)   =       0.00016663 Ry

     convergence has been achieved in  15 iterations

     Forces acting on atoms (cartesian axes, Ry/au):

     atom    1 type  2   force =    -0.00000022    0.00000094   -0.00000559
     atom    2 type  2   force =     0.00000903   -0.00000521    0.00000000
     atom    3 type  2   force =    -0.00000093   -0.00000028    0.00000559
     atom    4 type  1   force =    -0.00000040    0.00000572    0.00000641
     atom    5 type  1   force =    -0.00000233    0.00000134   -0.00000000
     atom    6 type  1   force =    -0.00000515   -0.00000252   -0.00000641

     Total force =     0.000018     Total SCF correction =     0.000001

     Computing stress (Cartesian axis) and pressure

          total   stress  (Ry/bohr**3)                   (kbar)     P=    0.00
   0.00000000   0.00000001   0.00000002          0.00      0.00      0.00
   0.00000001   0.00000002   0.00000004          0.00      0.00      0.01
   0.00000002   0.00000004   0.00000005          0.00      0.01      0.01

     number of scf cycles    =  50
     number of bfgs steps    =  49

     enthalpy old            =    -703.7384869299 Ry
     enthalpy new            =    -703.7384869307 Ry

     CASE: enthalpy_new < enthalpy_old

     Message from routine bfgs:
     history already reset at previous step: stopping
     small trust_radius: resetting bfgs history

     new trust radius        =       0.0000104242 bohr
     new conv_thr            =            1.0E-12 Ry

     new unit-cell volume =    709.69562 a.u.^3 (   105.16604 Ang^3 )
     density =      6.66830 g/cm^3

CELL_PARAMETERS (alat=  1.88972599)
   2.784500139   0.175874586   4.660084052
  -1.239938200   2.499385338   4.660084052
  -1.647989052  -2.854400930   4.707690190

ATOMIC_POSITIONS (angstrom)
Ti       0.294041212  -0.265250399   9.384706884
Ti      -0.523153819  -1.680509201   7.029797860
Ti       0.204355685  -0.420590280  13.995056939
Nb       1.057729088   1.057532719   6.934290650
Nb       0.300912195  -0.253349947   4.675952764
Nb      -1.695875228   0.935171265   7.077698932

     NEW-OLD atomic charge density approx. for the potential
     extrapolated charge   75.00012, renormalised to   75.00000

     General routines

     Parallel routines

       9h

   This run was terminated on:  10:47:40  12Feb2020

   JOB DONE.