     Program PWSCF v.6.3MaX starts on 31Jan2020 at 12:11:38

     R & G space division:  proc/nbgrp/npool/nimage =       4
     Waiting for input...
     Reading input from standard input

     Current dimensions of program PWSCF are:
     Max number of different atomic species (ntypx) = 10
     Max number of k-points (npk) =  40000
     Max angular momentum in pseudopotentials (lmaxx) =  3
     Message from routine iosys:
     minimal I/O required, wf_collect reset to FALSE

     Subspace diagonalization in iterative solution of the eigenvalue problem:
     a serial algorithm will be used

     bravais-lattice index     =            0
     lattice parameter (alat)  =       1.8897  a.u.
     unit-cell volume          =    1077.7903 (a.u.)^3
     number of atoms/cell      =            8
     number of atomic types    =            2
     number of electrons       =       100.00
     number of Kohn-Sham states=           60
     kinetic-energy cutoff     =      40.0000  Ry
     charge density cutoff     =     400.0000  Ry
     convergence threshold     =      1.0E-10
     mixing beta               =       0.6000
     number of iterations used =            8  plain     mixing
     Exchange-correlation      = SLA PW PBE PBE ( 1  4  3  4 0 0)
     nstep                     =           50

     celldm(1)=   1.889726  celldm(2)=   0.000000  celldm(3)=   0.000000
     celldm(4)=   0.000000  celldm(5)=   0.000000  celldm(6)=   0.000000

     crystal axes: (cart. coord. in units of alat)
               a(1) = (   1.522502  -2.637051   0.000000 )
               a(2) = (   0.000000   0.000000  -4.972461 )
               a(3) = (   9.135012   5.274102   0.000000 )

     reciprocal axes: (cart. coord. in units 2 pi/alat)
               b(1) = (  0.164203 -0.284409  0.000000 )
               b(2) = (  0.000000  0.000000 -0.201108 )
               b(3) = (  0.082102  0.047401  0.000000 )

     PseudoPot. # 1 for Nb read from file:
     ./Nb.pbe-nsp-van.UPF
     MD5 check sum: 0a22fc7fb0ba19a08ca5db297a5d2854
     Pseudo is Ultrasoft + core correction, Zval = 13.0
     Generated by new atomic code, or converted to UPF format
     Using radial grid of  887 points,  6 beta functions with:
                l(1) =   0
                l(2) =   0
                l(3) =   1
                l(4) =   1
                l(5) =   2
                l(6) =   2
     Q(r) pseudized with  6 coefficients,  rinner =    1.000   1.000   1.000
                                                       1.000   1.000

     PseudoPot. # 2 for Ti read from file:
     ./Ti.pbe-sp-van_ak.UPF
     MD5 check sum: f98fea3e8887528921fefa5636a534ca
     Pseudo is Ultrasoft, Zval = 12.0
     Generated by new atomic code, or converted to UPF format
     Using radial grid of  851 points,  6 beta functions with:
                l(1) =   0
                l(2) =   0
                l(3) =   1
                l(4) =   1
                l(5) =   2
                l(6) =   2
     Q(r) pseudized with  8 coefficients,  rinner =    1.000   1.000   1.000
                                                       1.000   1.000

     atomic species   valence    mass     pseudopotential
        Nb            13.00    92.90638     Nb( 1.00)
        Ti            12.00    47.86700     Ti( 1.00)

      4 Sym. Ops. (no inversion) found
          (note:  4 additional sym.ops. were found but ignored
           their fractional translations are incommensurate with FFT grid)

   Cartesian axes

     site n.     atom                  positions (alat units)
         1           Nb  tau(   1) = (   3.0450042   0.0000000  -4.9724614  )
         2           Ti  tau(   2) = (   3.0450058  -1.7580350  -2.4862307  )
         3           Nb  tau(   3) = (   6.0900085   0.0000000  -4.9724614  )
         4           Ti  tau(   4) = (   4.5675079   0.8790162  -2.4862307  )
         5           Ti  tau(   5) = (   7.6125106   2.6370512  -4.9724614  )
         6           Nb  tau(   6) = (   7.6125121   0.8790162  -2.4862307  )
         7           Ti  tau(   7) = (  10.6575148   2.6370512  -4.9724614  )
         8           Nb  tau(   8) = (   9.1350142   3.5160674  -2.4862307  )

     number of k points=   240  Marzari-Vanderbilt smearing, width (Ry)=  0.0200

     Number of k-points >= 100: set verbosity='high' to print them.

     Initial potential from superposition of free atoms

     starting charge   95.98889, renormalised to  100.00000
     Starting wfcs are   92 randomized atomic wfcs

     Self-consistent Calculation

     iteration #  1     ecut=    40.00 Ry     beta= 0.60
     Davidson diagonalization with overlap
     ethr =  1.00E-02,  avg # of iterations =  3.0

     total energy              =    -845.80054808 Ry
     Harris-Foulkes estimate   =    -944.76831235 Ry
     estimated scf accuracy    <     120.71175309 Ry

[...]

     iteration # 31     ecut=    40.00 Ry     beta= 0.60
     Davidson diagonalization with overlap
     c_bands:  1 eigenvalues not converged
     ethr =  3.58E-05,  avg # of iterations =  5.2

[...]

     End of self-consistent calculation

     Number of k-points >= 100: set verbosity='high' to print the bands.

     the Fermi energy is    13.8136 ev

!    total energy              =    -938.19464473 Ry
     Harris-Foulkes estimate   =    -938.19464473 Ry
     estimated scf accuracy    <          5.5E-11 Ry

     The total energy is the sum of the following terms:

     one-electron contribution =    -272.67583654 Ry
     hartree contribution      =     170.13907400 Ry
     xc contribution           =    -130.98465132 Ry
     ewald contribution        =    -704.66685072 Ry
     smearing contrib. (-TS)   =      -0.00638014 Ry

     convergence has been achieved in  58 iterations

     Forces acting on atoms (cartesian axes, Ry/au):

     atom    1 type  1   force =    -0.00061758   -0.00035656    0.00000000
     atom    2 type  2   force =    -0.00550643   -0.00317914    0.00000000
     atom    3 type  1   force =    -0.00186222   -0.00107516    0.00000000
     atom    4 type  2   force =     0.00231794    0.00133826    0.00000000
     atom    5 type  2   force =    -0.00229727   -0.00132633    0.00000000
     atom    6 type  1   force =     0.00184591    0.00106574    0.00000000
     atom    7 type  2   force =     0.00551790    0.00318576    0.00000000
     atom    8 type  1   force =     0.00060175    0.00034742    0.00000000

     Total force =     0.010266     Total SCF correction =     0.000029

     Computing stress (Cartesian axis) and pressure

          total   stress  (Ry/bohr**3)                   (kbar)     P= -126.16
  -0.00088304   0.00003545   0.00000000       -129.90      5.21      0.00
   0.00003545  -0.00092397   0.00000000          5.21   -135.92      0.00
   0.00000000   0.00000000  -0.00076587          0.00      0.00   -112.66

     BFGS Geometry Optimization

     number of scf cycles    =   1
     number of bfgs steps    =   0

     enthalpy new            =    -938.1946447276 Ry

     new trust radius        =       0.1517792297 bohr
     new conv_thr            =            1.0E-10 Ry

     new unit-cell volume =   1009.93535 a.u.^3 (   149.65698 Ang^3 )
     density =      6.24788 g/cm^3

CELL_PARAMETERS (alat=  1.88972599)
   1.486554559  -2.574788211   0.000000000
   0.000000000   0.000000000  -4.877254255
   8.938022023   5.160369791   0.000000000

ATOMIC_POSITIONS (angstrom)
Nb       2.977463024   0.002513728  -4.877254255
Ti       2.973375346  -1.716373484  -2.438627127
Nb       5.954601375   0.004840006  -4.877254255
Ti       4.468654760   0.863452023  -2.438627127
Ti       7.445604350   2.582196511  -4.877254255
Nb       7.446193145   0.866009261  -2.438627127
Ti      10.427433563   2.587231059  -4.877254255
Nb       8.936777188   3.443123896  -2.438627127

     NEW-OLD atomic charge density approx. for the potential

     Check: negative/imaginary core charge=   -0.000001    0.000000
     extrapolated charge   93.55075, renormalised to  100.00000

[...]

     enthalpy old            =    -938.1946447276 Ry
     enthalpy new            =    -938.2383440133 Ry

     CASE: enthalpy_new < enthalpy_old

[...]

     NEW-OLD atomic charge density approx. for the potential

     Check: negative/imaginary core charge=   -0.000001    0.000000
     extrapolated charge   99.75478, renormalised to  100.00000

[...]

     NEW-OLD atomic charge density approx. for the potential
     extrapolated charge   99.74660, renormalised to  100.00000

[...]

     WARNING: bfgs curvature condition failed, Theta= 0.978
     new trust radius        =       0.0230094153 bohr
     new conv_thr            =            1.0E-10 Ry

[...]

     Threshold (ethr) on eigenvalues was too large:
     Diagonalizing with lowered threshold

     Davidson diagonalization with overlap
     ethr =  5.18E-08,  avg # of iterations =  2.1

[...]

     Total force =     0.000025     Total SCF correction =     0.000003
     SCF correction compared to forces is large: reduce conv_thr to get better values

[...]

     small trust_radius: resetting bfgs history

[...]

     number of scf cycles    =  32
     number of bfgs steps    =  31

     enthalpy old            =    -938.2754824922 Ry
     enthalpy new            =    -938.2754824928 Ry

     CASE: enthalpy_new < enthalpy_old

     Message from routine bfgs:
     history already reset at previous step: stopping
     small trust_radius: resetting bfgs history

     new trust radius        =       0.0000115997 bohr
     new conv_thr            =            1.0E-12 Ry

     new unit-cell volume =    958.88152 a.u.^3 (   142.09158 Ang^3 )
     density =      6.58054 g/cm^3

[...]

ATOMIC_POSITIONS (angstrom)
Nb       3.151584821   0.229940665  -4.809499430
Ti       2.782442053  -1.572813386  -2.404749715
Nb       6.187843068   0.393297506  -4.809499430
Ti       4.372387943   0.934770157  -2.404749715
Ti       7.845652463   2.940062059  -4.809499430
Nb       7.407066940   1.097215217  -2.404749715
Ti      10.812379797   3.063275211  -4.809499430
Nb       9.066650236   3.645003932  -2.404749715

     NEW-OLD atomic charge density approx. for the potential
     extrapolated charge  100.00002, renormalised to  100.00000

[...]

     Threshold (ethr) on eigenvalues was too large:
     Diagonalizing with lowered threshold

     Davidson diagonalization with overlap
     ethr =  2.31E-12,  avg # of iterations =  3.9

[...]

     bfgs converged in  33 scf cycles and  32 bfgs steps
     (criteria: energy <  1.0E-10 Ry, force <  1.0E-05Ry/Bohr, cell <  1.0E-03kbar)

     End of BFGS Geometry Optimization

     Final enthalpy =    -938.2754824933 Ry
Begin final coordinates
     new unit-cell volume =    958.88152 a.u.^3 (   142.09158 Ang^3 )
     density =      6.58054 g/cm^3

CELL_PARAMETERS (alat=  1.88972599)
   1.376657944  -2.384441694   0.000000000
   0.000000000   0.000000000  -4.809499430
   9.292725815   5.365158108   0.000000000

ATOMIC_POSITIONS (angstrom)
Nb       3.151584821   0.229940665  -4.809499430
Ti       2.782442053  -1.572813386  -2.404749715
Nb       6.187843068   0.393297506  -4.809499430
Ti       4.372387943   0.934770157  -2.404749715
Ti       7.845652463   2.940062059  -4.809499430
Nb       7.407066940   1.097215217  -2.404749715
Ti      10.812379797   3.063275211  -4.809499430
Nb       9.066650236   3.645003932  -2.404749715
End final coordinates

     A final scf calculation at the relaxed structure.
     The G-vectors are recalculated for the final unit cell
     Results may differ from those at the preceding step.

     bravais-lattice index     =            0
     lattice parameter (alat)  =       1.8897  a.u.
     unit-cell volume          =     958.8815 (a.u.)^3
     number of atoms/cell      =            8
     number of atomic types    =            2
     number of electrons       =       100.00
     number of Kohn-Sham states=           60
     kinetic-energy cutoff     =      40.0000  Ry
     charge density cutoff     =     400.0000  Ry
     convergence threshold     =      1.0E-12
     mixing beta               =       0.6000
     number of iterations used =            8  plain     mixing
     Exchange-correlation      = SLA PW PBE PBE ( 1  4  3  4 0 0)

     celldm(1)=   1.889726  celldm(2)=   0.000000  celldm(3)=   0.000000
     celldm(4)=   0.000000  celldm(5)=   0.000000  celldm(6)=   0.000000

     crystal axes: (cart. coord. in units of alat)
               a(1) = (   1.376658  -2.384442   0.000000 )
               a(2) = (   0.000000   0.000000  -4.809499 )
               a(3) = (   9.292726   5.365158   0.000000 )

     reciprocal axes: (cart. coord. in units 2 pi/alat)
               b(1) = (  0.181599 -0.314539  0.000000 )
               b(2) = (  0.000000  0.000000 -0.207922 )
               b(3) = (  0.080708  0.046597  0.000000 )

     PseudoPot. # 1 for Nb read from file:
     ./Nb.pbe-nsp-van.UPF
     MD5 check sum: 0a22fc7fb0ba19a08ca5db297a5d2854
     Pseudo is Ultrasoft + core correction, Zval = 13.0
     Generated by new atomic code, or converted to UPF format
     Using radial grid of  887 points,  6 beta functions with:
                l(1) =   0
                l(2) =   0
                l(3) =   1
                l(4) =   1
                l(5) =   2
                l(6) =   2
     Q(r) pseudized with  6 coefficients,  rinner =    1.000   1.000   1.000
                                                       1.000   1.000

     PseudoPot. # 2 for Ti read from file:
     ./Ti.pbe-sp-van_ak.UPF
     MD5 check sum: f98fea3e8887528921fefa5636a534ca
     Pseudo is Ultrasoft, Zval = 12.0
     Generated by new atomic code, or converted to UPF format
     Using radial grid of  851 points,  6 beta functions with:
                l(1) =   0
                l(2) =   0
                l(3) =   1
                l(4) =   1
                l(5) =   2
                l(6) =   2
     Q(r) pseudized with  8 coefficients,  rinner =    1.000   1.000   1.000
                                                       1.000   1.000

     atomic species   valence    mass     pseudopotential
        Nb            13.00    92.90638     Nb( 1.00)
        Ti            12.00    47.86700     Ti( 1.00)

      4 Sym. Ops. (no inversion) found
          (note:  4 additional sym.ops. were found but ignored
           their fractional translations are incommensurate with FFT grid)

   Cartesian axes

     site n.     atom                  positions (alat units)
         1           Nb  tau(   1) = (   3.1515851   0.2299407  -4.8094998  )
         2           Ti  tau(   2) = (   2.7824423  -1.5728135  -2.4047499  )
         3           Nb  tau(   3) = (   6.1878435   0.3932975  -4.8094998  )
         4           Ti  tau(   4) = (   4.3723883   0.9347702  -2.4047499  )
         5           Ti  tau(   5) = (   7.8456531   2.9400623  -4.8094998  )
         6           Nb  tau(   6) = (   7.4070675   1.0972153  -2.4047499  )
         7           Ti  tau(   7) = (  10.8123806   3.0632754  -4.8094998  )
         8           Nb  tau(   8) = (   9.0666509   3.6450042  -2.4047499  )

     number of k points=   240  Marzari-Vanderbilt smearing, width (Ry)=  0.0200

     Number of k-points >= 100: set verbosity='high' to print them.

     Initial potential from superposition of free atoms

     starting charge   95.98889, renormalised to  100.00000
     Starting wfcs are   92 randomized atomic wfcs

     Self-consistent Calculation

[...]

     iteration # 27     ecut=    40.00 Ry     beta= 0.60
     Davidson diagonalization with overlap
     c_bands:  1 eigenvalues not converged
     ethr =  7.69E-07,  avg # of iterations =  5.1

[...]

     total energy              =    -938.27105479 Ry
     Harris-Foulkes estimate   =    -938.27105479 Ry
     estimated scf accuracy    <          4.0E-12 Ry

     iteration # 49     ecut=    40.00 Ry     beta= 0.60
     Davidson diagonalization with overlap
     ethr =  1.00E-13,  avg # of iterations =  1.0

     End of self-consistent calculation

     Number of k-points >= 100: set verbosity='high' to print the bands.

     the Fermi energy is    15.7050 ev

!    total energy              =    -938.27105479 Ry
     Harris-Foulkes estimate   =    -938.27105479 Ry
     estimated scf accuracy    <          2.3E-13 Ry

     The total energy is the sum of the following terms:

     one-electron contribution =    -232.93396976 Ry
     hartree contribution      =     158.53473443 Ry
     xc contribution           =    -131.84587658 Ry
     ewald contribution        =    -732.02550094 Ry
     smearing contrib. (-TS)   =      -0.00044195 Ry

     convergence has been achieved in  49 iterations

     Forces acting on atoms (cartesian axes, Ry/au):

     atom    1 type  1   force =     0.00003388    0.00001956    0.00000000
     atom    2 type  2   force =     0.00003899    0.00002251    0.00000000
     atom    3 type  1   force =     0.00000953    0.00000550    0.00000000
     atom    4 type  2   force =     0.00003549    0.00002049    0.00000000
     atom    5 type  2   force =    -0.00000325   -0.00000188    0.00000000
     atom    6 type  1   force =    -0.00002937   -0.00001695    0.00000000
     atom    7 type  2   force =    -0.00003859   -0.00002228    0.00000000
     atom    8 type  1   force =    -0.00004668   -0.00002695    0.00000000

     Total force =     0.000107     Total SCF correction =     0.000002

     Computing stress (Cartesian axis) and pressure

          total   stress  (Ry/bohr**3)                   (kbar)     P=   -2.76
  -0.00001193   0.00001144   0.00000000         -1.75      1.68      0.00
   0.00001144  -0.00002513   0.00000000          1.68     -3.70      0.00
   0.00000000   0.00000000  -0.00001916          0.00      0.00     -2.82

     General routines

     Parallel routines

      24h

   This run was terminated on:  23:36:15  31Jan2020

   JOB DONE.