     Program PWSCF v.6.3MaX starts on 14Jan2020 at 22:51:49

     R & G space division:  proc/nbgrp/npool/nimage =       4
     Waiting for input...
     Reading input from standard input

     Current dimensions of program PWSCF are:
     Max number of different atomic species (ntypx) = 10
     Max number of k-points (npk) =  40000
     Max angular momentum in pseudopotentials (lmaxx) =  3
     Message from routine iosys:
     minimal I/O required, wf_collect reset to FALSE

     Subspace diagonalization in iterative solution of the eigenvalue problem:
     a serial algorithm will be used

     bravais-lattice index     =            0
     lattice parameter (alat)  =       1.8897  a.u.
     unit-cell volume          =     440.0051 (a.u.)^3
     number of atoms/cell      =            3
     number of atomic types    =            2
     number of electrons       =        38.00
     number of Kohn-Sham states=           23
     kinetic-energy cutoff     =      50.0000  Ry
     charge density cutoff     =     500.0000  Ry
     convergence threshold     =      1.0E-10
     mixing beta               =       0.6000
     number of iterations used =            8  plain     mixing
     Exchange-correlation      = SLA PW PBE PBE ( 1  4  3  4 0 0)
     nstep                     =           50

     celldm(1)=   1.889726  celldm(2)=   0.000000  celldm(3)=   0.000000
     celldm(4)=   0.000000  celldm(5)=   0.000000  celldm(6)=   0.000000

     crystal axes: (cart. coord. in units of alat)
               a(1) = (  -1.758031   5.274095  -1.758031 )
               a(2) = (   1.758031   5.274095   1.758031 )
               a(3) = (   1.758031  -5.274095  -1.758031 )

     reciprocal axes: (cart. coord. in units 2 pi/alat)
               b(1) = (  0.000000  0.094803 -0.284409 )
               b(2) = (  0.284409  0.094803  0.000000 )
               b(3) = (  0.284409  0.000000 -0.284409 )

     PseudoPot. # 1 for Nb read from file:
     /home/u16/abhishekkt/fp/krishna/calculations/pseudopotentials/Nb.pbe-nsp-van.UPF
     MD5 check sum: c44c1a86bf31974e1e832c2ec821fd5f
     Pseudo is Ultrasoft + core correction, Zval = 13.0
     Generated by new atomic code, or converted to UPF format
     Using radial grid of  887 points,  6 beta functions with:
                l(1) =   0
                l(2) =   0
                l(3) =   1
                l(4) =   1
                l(5) =   2
                l(6) =   2
     Q(r) pseudized with  6 coefficients,  rinner =    1.000   1.000   1.000
                                                       1.000   1.000

     PseudoPot. # 2 for Ti read from file:
     /home/u16/abhishekkt/fp/krishna/calculations/pseudopotentials/Ti.pbe-sp-van_ak.UPF
     MD5 check sum: 84d3ec9e8983e94242673103c800fb48
     Pseudo is Ultrasoft, Zval = 12.0
     Generated by new atomic code, or converted to UPF format
     Using radial grid of  851 points,  6 beta functions with:
                l(1) =   0
                l(2) =   0
                l(3) =   1
                l(4) =   1
                l(5) =   2
                l(6) =   2
     Q(r) pseudized with  8 coefficients,  rinner =    1.000   1.000   1.000
                                                       1.000   1.000

     atomic species   valence    mass     pseudopotential
        Nb            13.00    92.90638     Nb( 1.00)
        Ti            12.00    47.86700     Ti( 1.00)

      8 Sym. Ops. (no inversion) found
          (note:  8 additional sym.ops. were found but ignored
           their fractional translations are incommensurate with FFT grid)

   Cartesian axes

     site n.     atom                  positions (alat units)
         1           Ti  tau(   1) = (   1.7580316   1.7580316  -1.7580316  )
         2           Nb  tau(   2) = (   1.7580316   5.2740949  -1.7580316  )
         3           Nb  tau(   3) = (   1.7580316  -1.7580316  -1.7580316  )

     number of k points=   244  Marzari-Vanderbilt smearing, width (Ry)=  0.0200

     Number of k-points >= 100: set verbosity='high' to print them.

     Initial potential from superposition of free atoms

     starting charge   36.99449, renormalised to   38.00000
     Starting wfcs are   36 randomized atomic wfcs

     Self-consistent Calculation

     iteration #  1     ecut=    50.00 Ry     beta= 0.60
     Davidson diagonalization with overlap
     ethr =  1.00E-02,  avg # of iterations =  2.6

     total energy              =    -337.17079638 Ry
     Harris-Foulkes estimate   =    -354.05501756 Ry
     estimated scf accuracy    <      21.18998723 Ry

[...]

     End of self-consistent calculation

     Number of k-points >= 100: set verbosity='high' to print the bands.

     the Fermi energy is    12.9227 ev

!    total energy              =    -352.44123397 Ry
     Harris-Foulkes estimate   =    -352.44123397 Ry
     estimated scf accuracy    <          1.3E-11 Ry

     The total energy is the sum of the following terms:

     one-electron contribution =     -99.82746466 Ry
     hartree contribution      =      62.05995561 Ry
     xc contribution           =     -50.87137536 Ry
     ewald contribution        =    -263.80147973 Ry
     smearing contrib. (-TS)   =      -0.00086982 Ry

     convergence has been achieved in  28 iterations

     Forces acting on atoms (cartesian axes, Ry/au):

     atom    1 type  2   force =     0.00000000    0.00000530    0.00000000
     atom    2 type  1   force =     0.00000000   -0.02699502    0.00000000
     atom    3 type  1   force =     0.00000000    0.02698972    0.00000000

     Total force =     0.038173     Total SCF correction =     0.000010

     Computing stress (Cartesian axis) and pressure

          total   stress  (Ry/bohr**3)                   (kbar)     P= -208.95
  -0.00139352   0.00000000   0.00000000       -204.99      0.00      0.00
   0.00000000  -0.00147409  -0.00000000          0.00   -216.85     -0.00
   0.00000000  -0.00000000  -0.00139352          0.00     -0.00   -204.99

     BFGS Geometry Optimization

     number of scf cycles    =   1
     number of bfgs steps    =   0

     enthalpy new            =    -352.4412339697 Ry

     new trust radius        =       0.1546048478 bohr
     new conv_thr            =            1.0E-10 Ry

     new unit-cell volume =    394.77619 a.u.^3 (    58.49980 Ang^3 )
     density =      6.63309 g/cm^3

CELL_PARAMETERS (alat=  1.88972599)
  -1.696785018   5.079732138  -1.696785018
   1.696785018   5.079732138   1.696785018
   1.696785018  -5.079732138  -1.696785018

ATOMIC_POSITIONS (angstrom)
Ti       1.696785018   1.693246747  -1.696785018
Nb       1.696785018   5.065973428  -1.696785018
Nb       1.696785018  -1.679488037  -1.696785018

     NEW-OLD atomic charge density approx. for the potential
     extrapolated charge   33.76160, renormalised to   38.00000

[...]

     iteration #  1     ecut=    50.00 Ry     beta= 0.60
     Davidson diagonalization with overlap
     c_bands:  1 eigenvalues not converged
     c_bands:  1 eigenvalues not converged
     c_bands:  1 eigenvalues not converged
     c_bands:  1 eigenvalues not converged
     c_bands:  1 eigenvalues not converged
     c_bands:  1 eigenvalues not converged
     c_bands:  1 eigenvalues not converged
     c_bands:  1 eigenvalues not converged
     c_bands:  1 eigenvalues not converged
     c_bands:  1 eigenvalues not converged
     c_bands:  1 eigenvalues not converged
     c_bands:  1 eigenvalues not converged
     c_bands:  1 eigenvalues not converged
     c_bands:  1 eigenvalues not converged
     c_bands:  1 eigenvalues not converged
     c_bands:  1 eigenvalues not converged
     c_bands:  1 eigenvalues not converged
     c_bands:  1 eigenvalues not converged
     c_bands:  1 eigenvalues not converged
     c_bands:  1 eigenvalues not converged
     c_bands:  1 eigenvalues not converged
     c_bands:  1 eigenvalues not converged
     c_bands:  1 eigenvalues not converged
     c_bands:  1 eigenvalues not converged
     c_bands:  1 eigenvalues not converged
     c_bands:  1 eigenvalues not converged
     c_bands:  1 eigenvalues not converged
     c_bands:  1 eigenvalues not converged
     ethr =  1.00E-06,  avg # of iterations = 15.1

[...]

     enthalpy old            =    -352.4412339697 Ry
     enthalpy new            =    -352.4945213166 Ry

     CASE: enthalpy_new < enthalpy_old

[...]

     iteration #  2     ecut=    50.00 Ry     beta= 0.60
     Davidson diagonalization with overlap
     c_bands:  1 eigenvalues not converged
     c_bands:  1 eigenvalues not converged
     c_bands:  1 eigenvalues not converged
     ethr =  1.51E-06,  avg # of iterations =  6.1

[...]

     Threshold (ethr) on eigenvalues was too large:
     Diagonalizing with lowered threshold

     Davidson diagonalization with overlap
     ethr =  2.29E-08,  avg # of iterations =  2.1

[...]

     Total force =     0.000028     Total SCF correction =     0.000004
     SCF correction compared to forces is large: reduce conv_thr to get better values

[...]

     small trust_radius: resetting bfgs history

[...]

     number of scf cycles    =  14
     number of bfgs steps    =  13

     enthalpy old            =    -352.5117074390 Ry
     enthalpy new            =    -352.5117074430 Ry

     CASE: enthalpy_new < enthalpy_old

     Message from routine bfgs:
     history already reset at previous step: stopping
     small trust_radius: resetting bfgs history

     new trust radius        =       0.0000114570 bohr
     new conv_thr            =            1.1E-12 Ry

     new unit-cell volume =    359.56336 a.u.^3 (    53.28179 Ang^3 )
     density =      7.28268 g/cm^3

[...]

ATOMIC_POSITIONS (angstrom)
Ti       1.655605587   1.619888040  -1.655605587
Nb       1.655605587   4.812869152  -1.655605587
Nb       1.655605587  -1.573105224  -1.655605587

     NEW-OLD atomic charge density approx. for the potential
     extrapolated charge   37.99975, renormalised to   38.00000

[...]

     Threshold (ethr) on eigenvalues was too large:
     Diagonalizing with lowered threshold

     Davidson diagonalization with overlap
     ethr =  1.25E-11,  avg # of iterations =  1.6

[...]

     bfgs converged in  15 scf cycles and  14 bfgs steps
     (criteria: energy <  1.0E-10 Ry, force <  1.0E-05Ry/Bohr, cell <  1.0E-03kbar)

     End of BFGS Geometry Optimization

     Final enthalpy =    -352.5117074435 Ry
Begin final coordinates
     new unit-cell volume =    359.56336 a.u.^3 (    53.28179 Ang^3 )
     density =      7.28268 g/cm^3

CELL_PARAMETERS (alat=  1.88972599)
  -1.655605587   4.859651968  -1.655605587
   1.655605587   4.859651968   1.655605587
   1.655605587  -4.859651968  -1.655605587

ATOMIC_POSITIONS (angstrom)
Ti       1.655605587   1.619888040  -1.655605587
Nb       1.655605587   4.812869152  -1.655605587
Nb       1.655605587  -1.573105224  -1.655605587
End final coordinates

     A final scf calculation at the relaxed structure.
     The G-vectors are recalculated for the final unit cell
     Results may differ from those at the preceding step.

     bravais-lattice index     =            0
     lattice parameter (alat)  =       1.8897  a.u.
     unit-cell volume          =     359.5634 (a.u.)^3
     number of atoms/cell      =            3
     number of atomic types    =            2
     number of electrons       =        38.00
     number of Kohn-Sham states=           23
     kinetic-energy cutoff     =      50.0000  Ry
     charge density cutoff     =     500.0000  Ry
     convergence threshold     =      1.1E-12
     mixing beta               =       0.6000
     number of iterations used =            8  plain     mixing
     Exchange-correlation      = SLA PW PBE PBE ( 1  4  3  4 0 0)

     celldm(1)=   1.889726  celldm(2)=   0.000000  celldm(3)=   0.000000
     celldm(4)=   0.000000  celldm(5)=   0.000000  celldm(6)=   0.000000

     crystal axes: (cart. coord. in units of alat)
               a(1) = (  -1.655606   4.859652  -1.655606 )
               a(2) = (   1.655606   4.859652   1.655606 )
               a(3) = (   1.655606  -4.859652  -1.655606 )

     reciprocal axes: (cart. coord. in units 2 pi/alat)
               b(1) = (  0.000000  0.102888 -0.302004 )
               b(2) = (  0.302004  0.102888  0.000000 )
               b(3) = (  0.302004  0.000000 -0.302004 )

     PseudoPot. # 1 for Nb read from file:
     /home/u16/abhishekkt/fp/krishna/calculations/pseudopotentials/Nb.pbe-nsp-van.UPF
     MD5 check sum: c44c1a86bf31974e1e832c2ec821fd5f
     Pseudo is Ultrasoft + core correction, Zval = 13.0
     Generated by new atomic code, or converted to UPF format
     Using radial grid of  887 points,  6 beta functions with:
                l(1) =   0
                l(2) =   0
                l(3) =   1
                l(4) =   1
                l(5) =   2
                l(6) =   2
     Q(r) pseudized with  6 coefficients,  rinner =    1.000   1.000   1.000
                                                       1.000   1.000

     PseudoPot. # 2 for Ti read from file:
     /home/u16/abhishekkt/fp/krishna/calculations/pseudopotentials/Ti.pbe-sp-van_ak.UPF
     MD5 check sum: 84d3ec9e8983e94242673103c800fb48
     Pseudo is Ultrasoft, Zval = 12.0
     Generated by new atomic code, or converted to UPF format
     Using radial grid of  851 points,  6 beta functions with:
                l(1) =   0
                l(2) =   0
                l(3) =   1
                l(4) =   1
                l(5) =   2
                l(6) =   2
     Q(r) pseudized with  8 coefficients,  rinner =    1.000   1.000   1.000
                                                       1.000   1.000

     atomic species   valence    mass     pseudopotential
        Nb            13.00    92.90638     Nb( 1.00)
        Ti            12.00    47.86700     Ti( 1.00)

      8 Sym. Ops. (no inversion) found
          (note:  8 additional sym.ops. were found but ignored
           their fractional translations are incommensurate with FFT grid)

   Cartesian axes

     site n.     atom                  positions (alat units)
         1           Ti  tau(   1) = (   1.6556057   1.6198882  -1.6556057  )
         2           Nb  tau(   2) = (   1.6556057   4.8128695  -1.6556057  )
         3           Nb  tau(   3) = (   1.6556057  -1.5731053  -1.6556057  )

     number of k points=   244  Marzari-Vanderbilt smearing, width (Ry)=  0.0200

     Number of k-points >= 100: set verbosity='high' to print them.

     Initial potential from superposition of free atoms

     starting charge   36.99449, renormalised to   38.00000
     Starting wfcs are   36 randomized atomic wfcs

     Self-consistent Calculation

[...]

     total energy              =    -352.51135180 Ry
     Harris-Foulkes estimate   =    -352.51135180 Ry
     estimated scf accuracy    <          1.3E-11 Ry

     iteration # 25     ecut=    50.00 Ry     beta= 0.60
     Davidson diagonalization with overlap
     ethr =  1.00E-13,  avg # of iterations =  2.4

     End of self-consistent calculation

     Number of k-points >= 100: set verbosity='high' to print the bands.

     the Fermi energy is    16.4587 ev

!    total energy              =    -352.51135180 Ry
     Harris-Foulkes estimate   =    -352.51135180 Ry
     estimated scf accuracy    <          1.0E-13 Ry

     The total energy is the sum of the following terms:

     one-electron contribution =     -73.72472082 Ry
     hartree contribution      =      54.52937364 Ry
     xc contribution           =     -51.42965872 Ry
     ewald contribution        =    -281.88494239 Ry
     smearing contrib. (-TS)   =      -0.00140351 Ry

     convergence has been achieved in  25 iterations

     Forces acting on atoms (cartesian axes, Ry/au):

     atom    1 type  2   force =     0.00000000   -0.00000130    0.00000000
     atom    2 type  1   force =     0.00000000   -0.00002383    0.00000000
     atom    3 type  1   force =     0.00000000    0.00002513    0.00000000

     Total force =     0.000035     Total SCF correction =     0.000001

     Computing stress (Cartesian axis) and pressure

          total   stress  (Ry/bohr**3)                   (kbar)     P=   -1.17
  -0.00000802  -0.00000000   0.00000000         -1.18     -0.00      0.00
  -0.00000000  -0.00000772   0.00000000         -0.00     -1.14      0.00
   0.00000000   0.00000000  -0.00000802          0.00      0.00     -1.18

     General routines

     Parallel routines

      37h

   This run was terminated on:   0:29:38  15Jan2020

   JOB DONE.