     Program PWSCF v.6.0 (svn rev. 13079) starts on 26Apr2018 at 11: 0:18

     Current dimensions of program PWSCF are:
     Max number of different atomic species (ntypx) = 10
     Max number of k-points (npk) =  40000
     Max angular momentum in pseudopotentials (lmaxx) =  3

     Subspace diagonalization in iterative solution of the eigenvalue problem:
     a serial algorithm will be used

     bravais-lattice index     =            0
     lattice parameter (alat)  =       1.8897  a.u.
     unit-cell volume          =     146.6684 (a.u.)^3
     number of atoms/cell      =            1
     number of atomic types    =            1
     number of electrons       =        12.00
     number of Kohn-Sham states=           10
     kinetic-energy cutoff     =      50.0000  Ry
     charge density cutoff     =     500.0000  Ry
     convergence threshold     =      1.0E-10
     mixing beta               =       0.6000
     number of iterations used =            8  plain     mixing
     Exchange-correlation      = SLA  PW   PBE  PBE ( 1  4  3  4 0 0)
     nstep                     =           50

     celldm(1)=   1.889726  celldm(2)=   0.000000  celldm(3)=   0.000000
     celldm(4)=   0.000000  celldm(5)=   0.000000  celldm(6)=   0.000000

     crystal axes: (cart. coord. in units of alat)
               a(1) = (   1.758031  -1.758031   1.758031 )
               a(2) = (   1.758031   1.758031  -1.758031 )
               a(3) = (  -1.758031   1.758031   1.758031 )

     reciprocal axes: (cart. coord. in units 2 pi/alat)
               b(1) = (  0.284409  0.000000  0.284409 )
               b(2) = (  0.284409  0.284409  0.000000 )
               b(3) = (  0.000000  0.284409  0.284409 )

     PseudoPot. # 1 for Ti read from file:
     ./Ti.pbe-sp-van_ak.UPF
     MD5 check sum: f98fea3e8887528921fefa5636a534ca
     Pseudo is Ultrasoft, Zval = 12.0
     Generated by new atomic code, or converted to UPF format
     Using radial grid of  851 points,  6 beta functions with:
                l(1) =   0
                l(2) =   0
                l(3) =   1
                l(4) =   1
                l(5) =   2
                l(6) =   2
     Q(r) pseudized with  8 coefficients,  rinner =    1.000   1.000   1.000
                                                       1.000   1.000

     atomic species   valence    mass     pseudopotential
        Ti            12.00    47.86700     Ti( 1.00)

     48 Sym. Ops., with inversion, found

   Cartesian axes

     site n.     atom                  positions (alat units)
         1           Ti  tau(   1) = (   1.7580316   1.7580316   1.7580316  )

     number of k points=   256  Marzari-Vanderbilt smearing, width (Ry)=  0.0200

     Number of k-points >= 100: set verbosity='high' to print them.

     Initial potential from superposition of free atoms

     starting charge   10.99996, renormalised to   12.00000
     Starting wfc are   10 randomized atomic wfcs

     Self-consistent Calculation

     iteration #  1     ecut=    50.00 Ry     beta=0.60
     Davidson diagonalization with overlap
     ethr =  1.00E-02,  avg # of iterations =  3.2

     total energy              =    -116.31765621 Ry
     Harris-Foulkes estimate   =    -116.93492289 Ry
     estimated scf accuracy    <       0.85757417 Ry

[...]

     End of self-consistent calculation

     Number of k-points >= 100: set verbosity='high' to print the bands.

     the Fermi energy is     9.9591 ev

!    total energy              =    -116.62479018 Ry
     Harris-Foulkes estimate   =    -116.62479018 Ry
     estimated scf accuracy    <          4.7E-11 Ry

     The total energy is the sum of the following terms:

     one-electron contribution =     -50.88971851 Ry
     hartree contribution      =      27.51439887 Ry
     xc contribution           =     -14.37789784 Ry
     ewald contribution        =     -78.87092309 Ry
     smearing contrib. (-TS)   =      -0.00064961 Ry

     convergence has been achieved in  10 iterations

     Forces acting on atoms (Ry/au):

     atom    1 type  1   force =     0.00000000    0.00000000    0.00000000

     Total force =     0.000000     Total SCF correction =     0.000000

     entering subroutine stress ...

          total   stress  (Ry/bohr**3)                   (kbar)     P= -164.76
  -0.00112003  -0.00000000  -0.00000000       -164.76     -0.00     -0.00
  -0.00000000  -0.00112003  -0.00000000         -0.00   -164.76     -0.00
  -0.00000000  -0.00000000  -0.00112003         -0.00     -0.00   -164.76

     BFGS Geometry Optimization

     number of scf cycles    =   1
     number of bfgs steps    =   0

     enthalpy new            =    -116.6247901803 Ry

     new trust radius        =       0.0678214075 bohr
     new conv_thr            =            1.0E-10 Ry

     new unit-cell volume =    134.68969 a.u.^3 (    19.95895 Ang^3 )

CELL_PARAMETERS (alat=  1.88972599)
   1.708805422  -1.708805422   1.708805422
   1.708805422   1.708805422  -1.708805422
  -1.708805422   1.708805422   1.708805422

ATOMIC_POSITIONS (angstrom)
Ti       1.708805422   1.708805422   1.708805422

     NEW-OLD atomic charge density approx. for the potential
     extrapolated charge   11.02171, renormalised to   12.00000

[...]

     enthalpy old            =    -116.6247901803 Ry
     enthalpy new            =    -116.6366068615 Ry

     CASE: enthalpy_new < enthalpy_old

[...]

     small trust_radius: resetting bfgs history

[...]

     Threshold (ethr) on eigenvalues was too large:
     Diagonalizing with lowered threshold

     Davidson diagonalization with overlap
     ethr =  1.19E-09,  avg # of iterations =  1.0

[...]

     number of scf cycles    =   6
     number of bfgs steps    =   5

     enthalpy old            =    -116.6453067091 Ry
     enthalpy new            =    -116.6453067110 Ry

     CASE: enthalpy_new < enthalpy_old

     Message from routine bfgs:
     history already reset at previous step: stopping
     small trust_radius: resetting bfgs history

     new trust radius        =       0.0000132831 bohr
     new conv_thr            =            1.0E-12 Ry

     new unit-cell volume =    115.92560 a.u.^3 (    17.17840 Ang^3 )

[...]

ATOMIC_POSITIONS (angstrom)
Ti       1.625452503   1.625452503   1.625452503

     NEW-OLD atomic charge density approx. for the potential
     extrapolated charge   11.99980, renormalised to   12.00000

[...]

     Threshold (ethr) on eigenvalues was too large:
     Diagonalizing with lowered threshold

     Davidson diagonalization with overlap
     ethr =  2.34E-10,  avg # of iterations =  1.0

[...]

     bfgs converged in   7 scf cycles and   6 bfgs steps
     (criteria: energy <  1.0E-10, force <  1.0E-05, cell <  1.0E-03)

     End of BFGS Geometry Optimization

     Final enthalpy =    -116.6453067114 Ry
Begin final coordinates
     new unit-cell volume =    115.92560 a.u.^3 (    17.17840 Ang^3 )

CELL_PARAMETERS (alat=  1.88972599)
   1.625452503  -1.625452503   1.625452503
   1.625452503   1.625452503  -1.625452503
  -1.625452503   1.625452503   1.625452503

ATOMIC_POSITIONS (angstrom)
Ti       1.625452503   1.625452503   1.625452503
End final coordinates

     A final scf calculation at the relaxed structure.
     The G-vectors are recalculated for the final unit cell
     Results may differ from those at the preceding step.

   Info: using nr1, nr2, nr3 values from input

   Info: using nr1, nr2, nr3 values from input

     bravais-lattice index     =            0
     lattice parameter (alat)  =       1.8897  a.u.
     unit-cell volume          =     115.9256 (a.u.)^3
     number of atoms/cell      =            1
     number of atomic types    =            1
     number of electrons       =        12.00
     number of Kohn-Sham states=           10
     kinetic-energy cutoff     =      50.0000  Ry
     charge density cutoff     =     500.0000  Ry
     convergence threshold     =      1.0E-12
     mixing beta               =       0.6000
     number of iterations used =            8  plain     mixing
     Exchange-correlation      = SLA  PW   PBE  PBE ( 1  4  3  4 0 0)

     celldm(1)=   1.889726  celldm(2)=   0.000000  celldm(3)=   0.000000
     celldm(4)=   0.000000  celldm(5)=   0.000000  celldm(6)=   0.000000

     crystal axes: (cart. coord. in units of alat)
               a(1) = (   1.625453  -1.625453   1.625453 )
               a(2) = (   1.625453   1.625453  -1.625453 )
               a(3) = (  -1.625453   1.625453   1.625453 )

     reciprocal axes: (cart. coord. in units 2 pi/alat)
               b(1) = (  0.307607 -0.000000  0.307607 )
               b(2) = (  0.307607  0.307607  0.000000 )
               b(3) = (  0.000000  0.307607  0.307607 )

     PseudoPot. # 1 for Ti read from file:
     ./Ti.pbe-sp-van_ak.UPF
     MD5 check sum: f98fea3e8887528921fefa5636a534ca
     Pseudo is Ultrasoft, Zval = 12.0
     Generated by new atomic code, or converted to UPF format
     Using radial grid of  851 points,  6 beta functions with:
                l(1) =   0
                l(2) =   0
                l(3) =   1
                l(4) =   1
                l(5) =   2
                l(6) =   2
     Q(r) pseudized with  8 coefficients,  rinner =    1.000   1.000   1.000
                                                       1.000   1.000

     atomic species   valence    mass     pseudopotential
        Ti            12.00    47.86700     Ti( 1.00)

     48 Sym. Ops., with inversion, found

   Cartesian axes

     site n.     atom                  positions (alat units)
         1           Ti  tau(   1) = (   1.6254526   1.6254526   1.6254526  )

     number of k points=   256  Marzari-Vanderbilt smearing, width (Ry)=  0.0200

     Number of k-points >= 100: set verbosity='high' to print them.

     Initial potential from superposition of free atoms

     starting charge   10.99996, renormalised to   12.00000
     Starting wfc are   10 randomized atomic wfcs

     Self-consistent Calculation

[...]

     total energy              =    -116.64520195 Ry
     Harris-Foulkes estimate   =    -116.64520195 Ry
     estimated scf accuracy    <          2.6E-12 Ry

     iteration # 14     ecut=    50.00 Ry     beta=0.60
     Davidson diagonalization with overlap
     ethr =  1.00E-13,  avg # of iterations =  1.0

     End of self-consistent calculation

     Number of k-points >= 100: set verbosity='high' to print the bands.

     the Fermi energy is    13.2792 ev

!    total energy              =    -116.64520195 Ry
     Harris-Foulkes estimate   =    -116.64520195 Ry
     estimated scf accuracy    <          8.0E-14 Ry

     The total energy is the sum of the following terms:

     one-electron contribution =     -41.15471810 Ry
     hartree contribution      =      24.35249314 Ry
     xc contribution           =     -14.53908107 Ry
     ewald contribution        =     -85.30397963 Ry
     smearing contrib. (-TS)   =       0.00008371 Ry

     convergence has been achieved in  14 iterations

     Forces acting on atoms (Ry/au):

     atom    1 type  1   force =     0.00000000    0.00000000    0.00000000

     Total force =     0.000000     Total SCF correction =     0.000000

     entering subroutine stress ...

          total   stress  (Ry/bohr**3)                   (kbar)     P=    0.41
   0.00000282  -0.00000000  -0.00000000          0.41     -0.00     -0.00
  -0.00000000   0.00000282  -0.00000000         -0.00      0.41     -0.00
  -0.00000000  -0.00000000   0.00000282         -0.00     -0.00      0.41

     General routines

     Parallel routines

   This run was terminated on:  11: 5:50  26Apr2018

   JOB DONE.