     Program PWSCF v.6.0 (svn rev. 13079) starts on 27Apr2018 at 10:45:34

     Current dimensions of program PWSCF are:
     Max number of different atomic species (ntypx) = 10
     Max number of k-points (npk) =  40000
     Max angular momentum in pseudopotentials (lmaxx) =  3

     Subspace diagonalization in iterative solution of the eigenvalue problem:
     a serial algorithm will be used

     bravais-lattice index     =            0
     lattice parameter (alat)  =       1.8897  a.u.
     unit-cell volume          =     440.0051 (a.u.)^3
     number of atoms/cell      =            3
     number of atomic types    =            2
     number of electrons       =        37.00
     number of Kohn-Sham states=           23
     kinetic-energy cutoff     =      50.0000  Ry
     charge density cutoff     =     500.0000  Ry
     convergence threshold     =      1.0E-10
     mixing beta               =       0.6000
     number of iterations used =            8  plain     mixing
     Exchange-correlation      = SLA  PW   PBE  PBE ( 1  4  3  4 0 0)
     nstep                     =           50

     celldm(1)=   1.889726  celldm(2)=   0.000000  celldm(3)=   0.000000
     celldm(4)=   0.000000  celldm(5)=   0.000000  celldm(6)=   0.000000

     crystal axes: (cart. coord. in units of alat)
               a(1) = (  -1.758031   5.274095  -1.758031 )
               a(2) = (   1.758031   5.274095   1.758031 )
               a(3) = (   1.758031  -5.274095  -1.758031 )

     reciprocal axes: (cart. coord. in units 2 pi/alat)
               b(1) = (  0.000000  0.094803 -0.284409 )
               b(2) = (  0.284409  0.094803  0.000000 )
               b(3) = (  0.284409  0.000000 -0.284409 )

     PseudoPot. # 1 for Nb read from file:
     ./Nb.pbe-nsp-van.UPF
     MD5 check sum: 0a22fc7fb0ba19a08ca5db297a5d2854
     Pseudo is Ultrasoft + core correction, Zval = 13.0
     Generated by new atomic code, or converted to UPF format
     Using radial grid of  887 points,  6 beta functions with:
                l(1) =   0
                l(2) =   0
                l(3) =   1
                l(4) =   1
                l(5) =   2
                l(6) =   2
     Q(r) pseudized with  6 coefficients,  rinner =    1.000   1.000   1.000
                                                       1.000   1.000

     PseudoPot. # 2 for Ti read from file:
     ./Ti.pbe-sp-van_ak.UPF
     MD5 check sum: f98fea3e8887528921fefa5636a534ca
     Pseudo is Ultrasoft, Zval = 12.0
     Generated by new atomic code, or converted to UPF format
     Using radial grid of  851 points,  6 beta functions with:
                l(1) =   0
                l(2) =   0
                l(3) =   1
                l(4) =   1
                l(5) =   2
                l(6) =   2
     Q(r) pseudized with  8 coefficients,  rinner =    1.000   1.000   1.000
                                                       1.000   1.000

     atomic species   valence    mass     pseudopotential
        Nb            13.00    92.90638     Nb( 1.00)
        Ti            12.00    47.86700     Ti( 1.00)

      8 Sym. Ops. (no inversion) found
          (note:  8 additional sym.ops. were found but ignored
           their fractional translations are incommensurate with FFT grid)

   Cartesian axes

     site n.     atom                  positions (alat units)
         1           Ti  tau(   1) = (   1.7580316   1.7580316  -1.7580316  )
         2           Ti  tau(   2) = (   1.7580316   5.2740949  -1.7580316  )
         3           Nb  tau(   3) = (   1.7580316  -1.7580316  -1.7580316  )

     number of k points=   244  Marzari-Vanderbilt smearing, width (Ry)=  0.0200

     Number of k-points >= 100: set verbosity='high' to print them.

     Initial potential from superposition of free atoms

     starting charge   34.99718, renormalised to   37.00000
     Starting wfc are   33 randomized atomic wfcs

     Self-consistent Calculation

     iteration #  1     ecut=    50.00 Ry     beta=0.60
     Davidson diagonalization with overlap
     ethr =  1.00E-02,  avg # of iterations =  3.5

     total energy              =    -348.04687306 Ry
     Harris-Foulkes estimate   =    -352.24382318 Ry
     estimated scf accuracy    <       5.38929068 Ry

[...]

     End of self-consistent calculation

     Number of k-points >= 100: set verbosity='high' to print the bands.

     the Fermi energy is    11.4479 ev

!    total energy              =    -351.15502926 Ry
     Harris-Foulkes estimate   =    -351.15502926 Ry
     estimated scf accuracy    <          9.7E-11 Ry

     The total energy is the sum of the following terms:

     one-electron contribution =    -126.34774517 Ry
     hartree contribution      =      72.30019047 Ry
     xc contribution           =     -46.99759907 Ry
     ewald contribution        =    -250.10861073 Ry
     smearing contrib. (-TS)   =      -0.00126476 Ry

     convergence has been achieved in  25 iterations

     Forces acting on atoms (Ry/au):

     atom    1 type  2   force =     0.00000000    0.02429123    0.00000000
     atom    2 type  2   force =     0.00000000   -0.02428642    0.00000000
     atom    3 type  1   force =     0.00000000   -0.00000481    0.00000000

     Total force =     0.034350     Total SCF correction =     0.000020

     entering subroutine stress ...

          total   stress  (Ry/bohr**3)                   (kbar)     P= -190.06
  -0.00126704  -0.00000000   0.00000000       -186.39     -0.00      0.00
  -0.00000000  -0.00134193   0.00000000         -0.00   -197.40      0.00
   0.00000000   0.00000000  -0.00126704          0.00      0.00   -186.39

     BFGS Geometry Optimization

     number of scf cycles    =   1
     number of bfgs steps    =   0

     enthalpy new            =    -351.1550292615 Ry

     new trust radius        =       0.1407435889 bohr
     new conv_thr            =            1.0E-10 Ry

     new unit-cell volume =    398.73039 a.u.^3 (    59.08575 Ang^3 )

CELL_PARAMETERS (alat=  1.88972599)
  -1.702344193   5.097157898  -1.702344193
   1.702344193   5.097157898   1.702344193
   1.702344193  -5.097157898  -1.702344193

ATOMIC_POSITIONS (angstrom)
Ti       1.702344193   1.711475755  -1.702344193
Ti       1.702344193   5.084737236  -1.702344193
Nb       1.702344193  -1.699055093  -1.702344193

     NEW-OLD atomic charge density approx. for the potential
     extrapolated charge   33.37725, renormalised to   37.00000

[...]

     iteration #  1     ecut=    50.00 Ry     beta=0.60
     Davidson diagonalization with overlap
     c_bands:  1 eigenvalues not converged
     c_bands:  1 eigenvalues not converged
     c_bands:  1 eigenvalues not converged
     c_bands:  1 eigenvalues not converged
     c_bands:  1 eigenvalues not converged
     c_bands:  1 eigenvalues not converged
     c_bands:  1 eigenvalues not converged
     c_bands:  1 eigenvalues not converged
     c_bands:  1 eigenvalues not converged
     c_bands:  1 eigenvalues not converged
     ethr =  1.00E-06,  avg # of iterations = 14.7

[...]

     enthalpy old            =    -351.1550292615 Ry
     enthalpy new            =    -351.2015111467 Ry

     CASE: enthalpy_new < enthalpy_old

[...]

     WARNING: bfgs curvature condition failed, Theta= 0.912
     new trust radius        =       0.0141351816 bohr
     new conv_thr            =            1.0E-10 Ry

[...]

     Threshold (ethr) on eigenvalues was too large:
     Diagonalizing with lowered threshold

     Davidson diagonalization with overlap
     ethr =  7.55E-08,  avg # of iterations =  3.0

[...]

     Total force =     0.000025     Total SCF correction =     0.000012
     SCF correction compared to forces is large: reduce conv_thr to get better values

[...]

     CASE: enthalpy_new < enthalpy_old

     small trust_radius: resetting bfgs history

     new trust radius        =       0.0000049460 bohr
     new conv_thr            =            1.0E-12 Ry

[...]

     NEW-OLD atomic charge density approx. for the potential
     extrapolated charge   36.99989, renormalised to   37.00000

[...]

     number of scf cycles    =  21
     number of bfgs steps    =  20

     enthalpy old            =    -351.2272916833 Ry
     enthalpy new            =    -351.2272916833 Ry

     CASE: enthalpy_new > enthalpy_old

     new trust radius        =       0.0000022064 bohr

     trust_radius < trust_radius_min

     resetting bfgs history

     Message from routine bfgs:
     history already reset at previous step: stopping
     new conv_thr            =            1.0E-12 Ry

     new unit-cell volume =    353.29339 a.u.^3 (    52.35268 Ang^3 )

[...]

ATOMIC_POSITIONS (angstrom)
Ti       1.709516638   1.543505527  -1.709516638
Ti       1.709516638   4.427842335  -1.709516638
Nb       1.709516638  -1.492850204  -1.709516638

     NEW-OLD atomic charge density approx. for the potential

[...]

     Threshold (ethr) on eigenvalues was too large:
     Diagonalizing with lowered threshold

     Davidson diagonalization with overlap
     ethr =  2.73E-14,  avg # of iterations =  3.6

[...]

     Total force =     0.000006     Total SCF correction =     0.000001
     SCF correction compared to forces is large: reduce conv_thr to get better values

[...]

     bfgs converged in  22 scf cycles and  20 bfgs steps
     (criteria: energy <  1.0E-10, force <  1.0E-05, cell <  1.0E-03)

     End of BFGS Geometry Optimization

     Final enthalpy =    -351.2272916833 Ry
Begin final coordinates
     new unit-cell volume =    353.29339 a.u.^3 (    52.35268 Ang^3 )

CELL_PARAMETERS (alat=  1.88972599)
  -1.709516638   4.478497658  -1.709516638
   1.709516638   4.478497658   1.709516638
   1.709516638  -4.478497658  -1.709516638

ATOMIC_POSITIONS (angstrom)
Ti       1.709516638   1.543505527  -1.709516638
Ti       1.709516638   4.427842335  -1.709516638
Nb       1.709516638  -1.492850204  -1.709516638
End final coordinates

     A final scf calculation at the relaxed structure.
     The G-vectors are recalculated for the final unit cell
     Results may differ from those at the preceding step.

   Info: using nr1, nr2, nr3 values from input

   Info: using nr1, nr2, nr3 values from input

     bravais-lattice index     =            0
     lattice parameter (alat)  =       1.8897  a.u.
     unit-cell volume          =     353.2934 (a.u.)^3
     number of atoms/cell      =            3
     number of atomic types    =            2
     number of electrons       =        37.00
     number of Kohn-Sham states=           23
     kinetic-energy cutoff     =      50.0000  Ry
     charge density cutoff     =     500.0000  Ry
     convergence threshold     =      1.0E-12
     mixing beta               =       0.6000
     number of iterations used =            8  plain     mixing
     Exchange-correlation      = SLA  PW   PBE  PBE ( 1  4  3  4 0 0)

     celldm(1)=   1.889726  celldm(2)=   0.000000  celldm(3)=   0.000000
     celldm(4)=   0.000000  celldm(5)=   0.000000  celldm(6)=   0.000000

     crystal axes: (cart. coord. in units of alat)
               a(1) = (  -1.709517   4.478498  -1.709517 )
               a(2) = (   1.709517   4.478498   1.709517 )
               a(3) = (   1.709517  -4.478498  -1.709517 )

     reciprocal axes: (cart. coord. in units 2 pi/alat)
               b(1) = ( -0.000000  0.111645 -0.292480 )
               b(2) = (  0.292480  0.111645  0.000000 )
               b(3) = (  0.292480 -0.000000 -0.292480 )

     PseudoPot. # 1 for Nb read from file:
     ./Nb.pbe-nsp-van.UPF
     MD5 check sum: 0a22fc7fb0ba19a08ca5db297a5d2854
     Pseudo is Ultrasoft + core correction, Zval = 13.0
     Generated by new atomic code, or converted to UPF format
     Using radial grid of  887 points,  6 beta functions with:
                l(1) =   0
                l(2) =   0
                l(3) =   1
                l(4) =   1
                l(5) =   2
                l(6) =   2
     Q(r) pseudized with  6 coefficients,  rinner =    1.000   1.000   1.000
                                                       1.000   1.000

     PseudoPot. # 2 for Ti read from file:
     ./Ti.pbe-sp-van_ak.UPF
     MD5 check sum: f98fea3e8887528921fefa5636a534ca
     Pseudo is Ultrasoft, Zval = 12.0
     Generated by new atomic code, or converted to UPF format
     Using radial grid of  851 points,  6 beta functions with:
                l(1) =   0
                l(2) =   0
                l(3) =   1
                l(4) =   1
                l(5) =   2
                l(6) =   2
     Q(r) pseudized with  8 coefficients,  rinner =    1.000   1.000   1.000
                                                       1.000   1.000

     atomic species   valence    mass     pseudopotential
        Nb            13.00    92.90638     Nb( 1.00)
        Ti            12.00    47.86700     Ti( 1.00)

      8 Sym. Ops. (no inversion) found
          (note:  8 additional sym.ops. were found but ignored
           their fractional translations are incommensurate with FFT grid)

   Cartesian axes

     site n.     atom                  positions (alat units)
         1           Ti  tau(   1) = (   1.7095168   1.5435056  -1.7095168  )
         2           Ti  tau(   2) = (   1.7095168   4.4278427  -1.7095168  )
         3           Nb  tau(   3) = (   1.7095168  -1.4928503  -1.7095168  )

     number of k points=   244  Marzari-Vanderbilt smearing, width (Ry)=  0.0200

     Number of k-points >= 100: set verbosity='high' to print them.

     Initial potential from superposition of free atoms

     starting charge   34.99718, renormalised to   37.00000
     Starting wfc are   33 randomized atomic wfcs

     Self-consistent Calculation

[...]

     iteration # 11     ecut=    50.00 Ry     beta=0.60
     Davidson diagonalization with overlap
     c_bands:  1 eigenvalues not converged
     ethr =  5.43E-09,  avg # of iterations =  2.5

[...]

     total energy              =    -351.22689453 Ry
     Harris-Foulkes estimate   =    -351.22689453 Ry
     estimated scf accuracy    <          1.7E-12 Ry

     iteration # 19     ecut=    50.00 Ry     beta=0.60
     Davidson diagonalization with overlap
     ethr =  1.00E-13,  avg # of iterations =  1.0

     End of self-consistent calculation

     Number of k-points >= 100: set verbosity='high' to print the bands.

     the Fermi energy is    14.9710 ev

!    total energy              =    -351.22689453 Ry
     Harris-Foulkes estimate   =    -351.22689453 Ry
     estimated scf accuracy    <          2.7E-13 Ry

     The total energy is the sum of the following terms:

     one-electron contribution =     -98.99369748 Ry
     hartree contribution      =      63.99520055 Ry
     xc contribution           =     -47.52902964 Ry
     ewald contribution        =    -268.69785502 Ry
     smearing contrib. (-TS)   =      -0.00151294 Ry

     convergence has been achieved in  19 iterations

     Forces acting on atoms (Ry/au):

     atom    1 type  2   force =     0.00000000   -0.00000760   -0.00000000
     atom    2 type  2   force =    -0.00000000    0.00000281    0.00000000
     atom    3 type  1   force =    -0.00000000    0.00000478    0.00000000

     Total force =     0.000009     Total SCF correction =     0.000001

     entering subroutine stress ...

          total   stress  (Ry/bohr**3)                   (kbar)     P=   -0.47
  -0.00000424   0.00000000   0.00000000         -0.62      0.00      0.00
   0.00000000  -0.00000120  -0.00000000          0.00     -0.18     -0.00
   0.00000000  -0.00000000  -0.00000424          0.00     -0.00     -0.62

     General routines

     Parallel routines

   This run was terminated on:  15: 3:17  27Apr2018

   JOB DONE.