     Program PWSCF v.6.3MaX starts on 14Jan2020 at  3:51:24

     Waiting for input...
     Reading input from standard input

     Current dimensions of program PWSCF are:
     Max number of different atomic species (ntypx) = 10
     Max number of k-points (npk) =  40000
     Max angular momentum in pseudopotentials (lmaxx) =  3
     Message from routine iosys:
     minimal I/O required, wf_collect reset to FALSE

     Subspace diagonalization in iterative solution of the eigenvalue problem:
     a serial algorithm will be used

     bravais-lattice index     =            0
     lattice parameter (alat)  =       1.8897  a.u.
     unit-cell volume          =     586.6735 (a.u.)^3
     number of atoms/cell      =            4
     number of atomic types    =            2
     number of electrons       =        50.00
     number of Kohn-Sham states=           30
     kinetic-energy cutoff     =      50.0000  Ry
     charge density cutoff     =     500.0000  Ry
     convergence threshold     =      1.0E-10
     mixing beta               =       0.6000
     number of iterations used =            8  plain     mixing
     Exchange-correlation      = SLA PW PBE PBE ( 1  4  3  4 0 0)
     nstep                     =           50

     celldm(1)=   1.889726  celldm(2)=   0.000000  celldm(3)=   0.000000
     celldm(4)=   0.000000  celldm(5)=   0.000000  celldm(6)=   0.000000

     crystal axes: (cart. coord. in units of alat)
               a(1) = (   0.000000   3.516063   3.516063 )
               a(2) = (   3.516063   0.000000   3.516063 )
               a(3) = (   3.516063   3.516063   0.000000 )

     reciprocal axes: (cart. coord. in units 2 pi/alat)
               b(1) = ( -0.142205  0.142205  0.142205 )
               b(2) = (  0.142205 -0.142205  0.142205 )
               b(3) = (  0.142205  0.142205 -0.142205 )

     PseudoPot. # 1 for Nb read from file:
     /home/u16/abhishekkt/fp/krishna/calculations/pseudopotentials/Nb.pbe-nsp-van.UPF
     MD5 check sum: c44c1a86bf31974e1e832c2ec821fd5f
     Pseudo is Ultrasoft + core correction, Zval = 13.0
     Generated by new atomic code, or converted to UPF format
     Using radial grid of  887 points,  6 beta functions with:
                l(1) =   0
                l(2) =   0
                l(3) =   1
                l(4) =   1
                l(5) =   2
                l(6) =   2
     Q(r) pseudized with  6 coefficients,  rinner =    1.000   1.000   1.000
                                                       1.000   1.000

     PseudoPot. # 2 for Ti read from file:
     /home/u16/abhishekkt/fp/krishna/calculations/pseudopotentials/Ti.pbe-sp-van_ak.UPF
     MD5 check sum: 84d3ec9e8983e94242673103c800fb48
     Pseudo is Ultrasoft, Zval = 12.0
     Generated by new atomic code, or converted to UPF format
     Using radial grid of  851 points,  6 beta functions with:
                l(1) =   0
                l(2) =   0
                l(3) =   1
                l(4) =   1
                l(5) =   2
                l(6) =   2
     Q(r) pseudized with  8 coefficients,  rinner =    1.000   1.000   1.000
                                                       1.000   1.000

     atomic species   valence    mass     pseudopotential
        Nb            13.00    92.90638     Nb( 1.00)
        Ti            12.00    47.86700     Ti( 1.00)

     48 Sym. Ops., with inversion, found (24 have fractional translation)

   Cartesian axes

     site n.     atom                  positions (alat units)
         1           Ti  tau(   1) = (   1.7580316   1.7580316   1.7580316  )
         2           Ti  tau(   2) = (   3.5160633   3.5160633   3.5160633  )
         3           Nb  tau(   3) = (   5.2740949   5.2740949   5.2740949  )
         4           Nb  tau(   4) = (   7.0321265   7.0321265   7.0321265  )

     number of k points=    84  Marzari-Vanderbilt smearing, width (Ry)=  0.0200
                       cart. coord. in units 2pi/alat
        k(    1) = (   0.0000000   0.0000000   0.0000000), wk =   0.0009103
        k(    2) = (   0.0109388   0.0109388  -0.0109388), wk =   0.0072827
        k(    3) = (   0.0218776   0.0218776  -0.0218776), wk =   0.0072827
        k(    4) = (   0.0328164   0.0328164  -0.0328164), wk =   0.0072827
        k(    5) = (   0.0437552   0.0437552  -0.0437552), wk =   0.0072827
        k(    6) = (   0.0546940   0.0546940  -0.0546940), wk =   0.0072827
        k(    7) = (   0.0656328   0.0656328  -0.0656328), wk =   0.0072827
        k(    8) = (   0.0218776   0.0000000   0.0000000), wk =   0.0054620
        k(    9) = (   0.0328164   0.0109388  -0.0109388), wk =   0.0218480
        k(   10) = (   0.0437552   0.0218776  -0.0218776), wk =   0.0218480
        k(   11) = (   0.0546940   0.0328164  -0.0328164), wk =   0.0218480
        k(   12) = (   0.0656328   0.0437552  -0.0437552), wk =   0.0218480
        k(   13) = (   0.0765717   0.0546940  -0.0546940), wk =   0.0218480
        k(   14) = (  -0.0546940  -0.0765717   0.0765717), wk =   0.0218480
        k(   15) = (  -0.0437552  -0.0656328   0.0656328), wk =   0.0218480
        k(   16) = (  -0.0328164  -0.0546940   0.0546940), wk =   0.0218480
        k(   17) = (  -0.0218776  -0.0437552   0.0437552), wk =   0.0218480
        k(   18) = (  -0.0109388  -0.0328164   0.0328164), wk =   0.0218480
        k(   19) = (   0.0000000  -0.0218776   0.0218776), wk =   0.0109240
        k(   20) = (   0.0437552   0.0000000   0.0000000), wk =   0.0054620
        k(   21) = (   0.0546940   0.0109388  -0.0109388), wk =   0.0218480
        k(   22) = (   0.0656328   0.0218776  -0.0218776), wk =   0.0218480
        k(   23) = (   0.0765717   0.0328164  -0.0328164), wk =   0.0218480
        k(   24) = (   0.0875105   0.0437552  -0.0437552), wk =   0.0218480
        k(   25) = (  -0.0437552  -0.0875105   0.0875105), wk =   0.0218480
        k(   26) = (  -0.0328164  -0.0765717   0.0765717), wk =   0.0218480
        k(   27) = (  -0.0218776  -0.0656328   0.0656328), wk =   0.0218480
        k(   28) = (  -0.0109388  -0.0546940   0.0546940), wk =   0.0218480
        k(   29) = (   0.0000000  -0.0437552   0.0437552), wk =   0.0109240
        k(   30) = (   0.0656328   0.0000000   0.0000000), wk =   0.0054620
        k(   31) = (   0.0765717   0.0109388  -0.0109388), wk =   0.0218480
        k(   32) = (   0.0875105   0.0218776  -0.0218776), wk =   0.0218480
        k(   33) = (   0.0984493   0.0328164  -0.0328164), wk =   0.0218480
        k(   34) = (  -0.0328164  -0.0984493   0.0984493), wk =   0.0218480
        k(   35) = (  -0.0218776  -0.0875105   0.0875105), wk =   0.0218480
        k(   36) = (  -0.0109388  -0.0765717   0.0765717), wk =   0.0218480
        k(   37) = (   0.0000000  -0.0656328   0.0656328), wk =   0.0109240
        k(   38) = (   0.0875105   0.0000000   0.0000000), wk =   0.0054620
        k(   39) = (   0.0984493   0.0109388  -0.0109388), wk =   0.0218480
        k(   40) = (   0.1093881   0.0218776  -0.0218776), wk =   0.0218480
        k(   41) = (  -0.0218776  -0.1093881   0.1093881), wk =   0.0218480
        k(   42) = (  -0.0109388  -0.0984493   0.0984493), wk =   0.0218480
        k(   43) = (   0.0000000  -0.0875105   0.0875105), wk =   0.0109240
        k(   44) = (   0.1093881   0.0000000   0.0000000), wk =   0.0054620
        k(   45) = (   0.1203269   0.0109388  -0.0109388), wk =   0.0218480
        k(   46) = (  -0.0109388  -0.1203269   0.1203269), wk =   0.0218480
        k(   47) = (   0.0000000  -0.1093881   0.1093881), wk =   0.0109240
        k(   48) = (   0.1312657   0.0000000   0.0000000), wk =   0.0054620
        k(   49) = (   0.0000000  -0.1312657   0.1312657), wk =   0.0109240
        k(   50) = (   0.0437552   0.0218776   0.0000000), wk =   0.0218480
        k(   51) = (   0.0546940   0.0328164  -0.0109388), wk =   0.0436959
        k(   52) = (   0.0656328   0.0437552  -0.0218776), wk =   0.0436959
        k(   53) = (   0.0765717   0.0546940  -0.0328164), wk =   0.0436959
        k(   54) = (  -0.0546940  -0.0765717   0.0984493), wk =   0.0436959
        k(   55) = (   0.0656328   0.0218776   0.0000000), wk =   0.0218480
        k(   56) = (   0.0765717   0.0328164  -0.0109388), wk =   0.0436959
        k(   57) = (   0.0875105   0.0437552  -0.0218776), wk =   0.0436959
        k(   58) = (  -0.0437552  -0.0875105   0.1093881), wk =   0.0436959
        k(   59) = (  -0.0328164  -0.0765717   0.0984493), wk =   0.0436959
        k(   60) = (  -0.0218776  -0.0656328   0.0875105), wk =   0.0436959
[...]
        k(   70) = (  -0.0218776  -0.1093881   0.1312657), wk =   0.0436959
        k(   71) = (  -0.0109388  -0.0984493   0.1203269), wk =   0.0436959
        k(   72) = (   0.0000000  -0.0875105   0.1093881), wk =   0.0218480
        k(   73) = (  -0.0109388  -0.1203269   0.1422045), wk =   0.0218480
        k(   74) = (   0.0000000  -0.1093881   0.1312657), wk =   0.0218480
        k(   75) = (   0.0875105   0.0437552   0.0000000), wk =   0.0218480
        k(   76) = (  -0.0437552  -0.0875105   0.1312657), wk =   0.0436959
        k(   77) = (  -0.0328164  -0.0765717   0.1203269), wk =   0.0436959
        k(   78) = (  -0.0328164  -0.0984493   0.1422045), wk =   0.0218480
        k(   79) = (  -0.0218776  -0.0875105   0.1312657), wk =   0.0436959
        k(   80) = (  -0.0109388  -0.0765717   0.1203269), wk =   0.0436959
        k(   81) = (   0.0000000  -0.0656328   0.1093881), wk =   0.0218480
        k(   82) = (  -0.0109388  -0.0984493   0.1422045), wk =   0.0218480
        k(   83) = (   0.0000000  -0.0875105   0.1312657), wk =   0.0218480
        k(   84) = (  -0.0109388  -0.0765717   0.1422045), wk =   0.0218480

     Initial potential from superposition of free atoms

     starting charge   47.99445, renormalised to   50.00000
     Starting wfcs are   46 randomized atomic wfcs

     Self-consistent Calculation

     iteration #  1     ecut=    50.00 Ry     beta= 0.60
     Davidson diagonalization with overlap
     ethr =  1.00E-02,  avg # of iterations =  3.0

     total energy              =    -461.93277092 Ry
     Harris-Foulkes estimate   =    -470.69850119 Ry
     estimated scf accuracy    <      11.17797489 Ry

[...]

     iteration # 17     ecut=    50.00 Ry     beta= 0.60
     Davidson diagonalization with overlap
     c_bands:  1 eigenvalues not converged
     ethr =  9.84E-06,  avg # of iterations =  6.5

[...]

     End of self-consistent calculation

          k = 0.0000 0.0000 0.0000 (  3479 PWs)   bands (ev):

   -44.8111 -44.7664 -42.4536 -42.3569 -21.0759 -21.0759 -21.0759 -20.9673
   -20.9673 -20.9673 -18.5614 -18.5614 -18.5614 -18.2984 -18.2984 -18.2984
     6.7063  10.0351  10.0351  11.3387  11.3387  11.3387  11.4215  11.4215
    11.4215  12.7832  12.7832  12.7832  14.3112  14.3112

[...]

          k =-0.0547-0.0766 0.0766 (  3507 PWs)   bands (ev):

[...]

     the Fermi energy is    12.1870 ev

!    total energy              =    -469.07403300 Ry
     Harris-Foulkes estimate   =    -469.07403300 Ry
     estimated scf accuracy    <          1.9E-12 Ry

     The total energy is the sum of the following terms:

     one-electron contribution =    -150.74239891 Ry
     hartree contribution      =      89.49847134 Ry
     xc contribution           =     -65.24262394 Ry
     ewald contribution        =    -342.58472813 Ry
     smearing contrib. (-TS)   =      -0.00275335 Ry

     convergence has been achieved in  39 iterations

     Forces acting on atoms (cartesian axes, Ry/au):

     atom    1 type  2   force =     0.00000000   -0.00000000    0.00000000
     atom    2 type  2   force =    -0.00000000    0.00000000   -0.00000000
     atom    3 type  1   force =     0.00000000   -0.00000000   -0.00000000
     atom    4 type  1   force =    -0.00000000    0.00000000    0.00000000

     Total force =     0.000000     Total SCF correction =     0.000000

     Computing stress (Cartesian axis) and pressure

          total   stress  (Ry/bohr**3)                   (kbar)     P= -197.68
  -0.00134382  -0.00000000  -0.00000000       -197.68     -0.00     -0.00
  -0.00000000  -0.00134382  -0.00000000         -0.00   -197.68     -0.00
  -0.00000000  -0.00000000  -0.00134382         -0.00     -0.00   -197.68

     BFGS Geometry Optimization

     number of scf cycles    =   1
     number of bfgs steps    =   0

     enthalpy new            =    -469.0740329974 Ry

     new trust radius        =       0.1627451900 bohr
     new conv_thr            =            1.0E-10 Ry

     new unit-cell volume =    529.50906 a.u.^3 (    78.46515 Ang^3 )
     density =      5.95831 g/cm^3

CELL_PARAMETERS (alat=  1.88972599)
  -0.000000000   3.397939422   3.397939422
   3.397939422  -0.000000000   3.397939422
   3.397939422   3.397939422  -0.000000000

ATOMIC_POSITIONS (angstrom)
Ti       1.698969711   1.698969711   1.698969711
Ti       3.397939422   3.397939422   3.397939422
Nb       5.096909132   5.096909132   5.096909132
Nb       6.795878843   6.795878843   6.795878843

     NEW-OLD atomic charge density approx. for the potential
     extrapolated charge   44.81865, renormalised to   50.00000

[...]

     enthalpy old            =    -469.0740329974 Ry
     enthalpy new            =    -469.1375332861 Ry

     CASE: enthalpy_new < enthalpy_old

[...]

     iteration #  1     ecut=    50.00 Ry     beta= 0.60
     Davidson diagonalization with overlap
     c_bands:  1 eigenvalues not converged
     c_bands:  1 eigenvalues not converged
     c_bands:  1 eigenvalues not converged
     c_bands:  1 eigenvalues not converged
     ethr =  1.00E-06,  avg # of iterations = 14.4

[...]

     Threshold (ethr) on eigenvalues was too large:
     Diagonalizing with lowered threshold

     Davidson diagonalization with overlap
     ethr =  4.09E-08,  avg # of iterations =  1.0

[...]

     CASE: enthalpy_new < enthalpy_old

     small trust_radius: resetting bfgs history

     new trust radius        =       0.0000029002 bohr
     new conv_thr            =            1.0E-12 Ry

[...]

     NEW-OLD atomic charge density approx. for the potential
     extrapolated charge   50.00010, renormalised to   50.00000

[...]

     number of scf cycles    =   7
     number of bfgs steps    =   6

     enthalpy old            =    -469.1618592421 Ry
     enthalpy new            =    -469.1618592420 Ry

     CASE: enthalpy_new > enthalpy_old

     new trust radius        =       0.0000003485 bohr

     trust_radius < trust_radius_min

     resetting bfgs history

     Message from routine bfgs:
     history already reset at previous step: stopping
     new conv_thr            =            1.0E-12 Ry

     new unit-cell volume =    475.46231 a.u.^3 (    70.45624 Ang^3 )
     density =      6.63560 g/cm^3

[...]

ATOMIC_POSITIONS (angstrom)
Ti       1.639078939   1.639078939   1.639078939
Ti       3.278157878   3.278157878   3.278157878
Nb       4.917236817   4.917236817   4.917236817
Nb       6.556315756   6.556315756   6.556315756

     NEW-OLD atomic charge density approx. for the potential

[...]

     Threshold (ethr) on eigenvalues was too large:
     Diagonalizing with lowered threshold

     Davidson diagonalization with overlap
     ethr =  3.68E-14,  avg # of iterations =  1.0

[...]

     bfgs converged in   8 scf cycles and   6 bfgs steps
     (criteria: energy <  1.0E-10 Ry, force <  1.0E-05Ry/Bohr, cell <  1.0E-03kbar)

     End of BFGS Geometry Optimization

     Final enthalpy =    -469.1618592420 Ry
Begin final coordinates
     new unit-cell volume =    475.46231 a.u.^3 (    70.45624 Ang^3 )
     density =      6.63560 g/cm^3

CELL_PARAMETERS (alat=  1.88972599)
  -0.000000000   3.278157878   3.278157878
   3.278157878  -0.000000000   3.278157878
   3.278157878   3.278157878  -0.000000000

ATOMIC_POSITIONS (angstrom)
Ti       1.639078939   1.639078939   1.639078939
Ti       3.278157878   3.278157878   3.278157878
Nb       4.917236817   4.917236817   4.917236817
Nb       6.556315756   6.556315756   6.556315756
End final coordinates

     A final scf calculation at the relaxed structure.
     The G-vectors are recalculated for the final unit cell
     Results may differ from those at the preceding step.

     bravais-lattice index     =            0
     lattice parameter (alat)  =       1.8897  a.u.
     unit-cell volume          =     475.4623 (a.u.)^3
     number of atoms/cell      =            4
     number of atomic types    =            2
     number of electrons       =        50.00
     number of Kohn-Sham states=           30
     kinetic-energy cutoff     =      50.0000  Ry
     charge density cutoff     =     500.0000  Ry
     convergence threshold     =      1.0E-12
     mixing beta               =       0.6000
     number of iterations used =            8  plain     mixing
     Exchange-correlation      = SLA PW PBE PBE ( 1  4  3  4 0 0)

     celldm(1)=   1.889726  celldm(2)=   0.000000  celldm(3)=   0.000000
     celldm(4)=   0.000000  celldm(5)=   0.000000  celldm(6)=   0.000000

     crystal axes: (cart. coord. in units of alat)
               a(1) = (  -0.000000   3.278158   3.278158 )
               a(2) = (   3.278158  -0.000000   3.278158 )
               a(3) = (   3.278158   3.278158  -0.000000 )

     reciprocal axes: (cart. coord. in units 2 pi/alat)
               b(1) = ( -0.152525  0.152525  0.152525 )
               b(2) = (  0.152525 -0.152525  0.152525 )
               b(3) = (  0.152525  0.152525 -0.152525 )

     PseudoPot. # 1 for Nb read from file:
     /home/u16/abhishekkt/fp/krishna/calculations/pseudopotentials/Nb.pbe-nsp-van.UPF
     MD5 check sum: c44c1a86bf31974e1e832c2ec821fd5f
     Pseudo is Ultrasoft + core correction, Zval = 13.0
     Generated by new atomic code, or converted to UPF format
     Using radial grid of  887 points,  6 beta functions with:
                l(1) =   0
                l(2) =   0
                l(3) =   1
                l(4) =   1
                l(5) =   2
                l(6) =   2
     Q(r) pseudized with  6 coefficients,  rinner =    1.000   1.000   1.000
                                                       1.000   1.000

     PseudoPot. # 2 for Ti read from file:
     /home/u16/abhishekkt/fp/krishna/calculations/pseudopotentials/Ti.pbe-sp-van_ak.UPF
     MD5 check sum: 84d3ec9e8983e94242673103c800fb48
     Pseudo is Ultrasoft, Zval = 12.0
     Generated by new atomic code, or converted to UPF format
     Using radial grid of  851 points,  6 beta functions with:
                l(1) =   0
                l(2) =   0
                l(3) =   1
                l(4) =   1
                l(5) =   2
                l(6) =   2
     Q(r) pseudized with  8 coefficients,  rinner =    1.000   1.000   1.000
                                                       1.000   1.000

     atomic species   valence    mass     pseudopotential
        Nb            13.00    92.90638     Nb( 1.00)
        Ti            12.00    47.86700     Ti( 1.00)

     48 Sym. Ops., with inversion, found (24 have fractional translation)

   Cartesian axes

     site n.     atom                  positions (alat units)
         1           Ti  tau(   1) = (   1.6390791   1.6390791   1.6390791  )
         2           Ti  tau(   2) = (   3.2781581   3.2781581   3.2781581  )
         3           Nb  tau(   3) = (   4.9172372   4.9172372   4.9172372  )
         4           Nb  tau(   4) = (   6.5563163   6.5563163   6.5563163  )

     number of k points=    84  Marzari-Vanderbilt smearing, width (Ry)=  0.0200
                       cart. coord. in units 2pi/alat
        k(    1) = (   0.0000000   0.0000000   0.0000000), wk =   0.0009103
        k(    2) = (   0.0117327   0.0117327  -0.0117327), wk =   0.0072827
        k(    3) = (   0.0234653   0.0234653  -0.0234653), wk =   0.0072827
        k(    4) = (   0.0351980   0.0351980  -0.0351980), wk =   0.0072827
        k(    5) = (   0.0469307   0.0469307  -0.0469307), wk =   0.0072827
        k(    6) = (   0.0586633   0.0586633  -0.0586633), wk =   0.0072827
        k(    7) = (   0.0703960   0.0703960  -0.0703960), wk =   0.0072827
        k(    8) = (   0.0234653   0.0000000   0.0000000), wk =   0.0054620
        k(    9) = (   0.0351980   0.0117327  -0.0117327), wk =   0.0218480
        k(   10) = (   0.0469307   0.0234653  -0.0234653), wk =   0.0218480
        k(   11) = (   0.0586633   0.0351980  -0.0351980), wk =   0.0218480
        k(   12) = (   0.0703960   0.0469307  -0.0469307), wk =   0.0218480
        k(   13) = (   0.0821287   0.0586633  -0.0586633), wk =   0.0218480
        k(   14) = (  -0.0586633  -0.0821287   0.0821287), wk =   0.0218480
        k(   15) = (  -0.0469307  -0.0703960   0.0703960), wk =   0.0218480
        k(   16) = (  -0.0351980  -0.0586633   0.0586633), wk =   0.0218480
        k(   17) = (  -0.0234653  -0.0469307   0.0469307), wk =   0.0218480
        k(   18) = (  -0.0117327  -0.0351980   0.0351980), wk =   0.0218480
        k(   19) = (   0.0000000  -0.0234653   0.0234653), wk =   0.0109240
        k(   20) = (   0.0469307   0.0000000   0.0000000), wk =   0.0054620
        k(   21) = (   0.0586633   0.0117327  -0.0117327), wk =   0.0218480
        k(   22) = (   0.0703960   0.0234653  -0.0234653), wk =   0.0218480
        k(   23) = (   0.0821287   0.0351980  -0.0351980), wk =   0.0218480
        k(   24) = (   0.0938613   0.0469307  -0.0469307), wk =   0.0218480
        k(   25) = (  -0.0469307  -0.0938613   0.0938613), wk =   0.0218480
        k(   26) = (  -0.0351980  -0.0821287   0.0821287), wk =   0.0218480
        k(   27) = (  -0.0234653  -0.0703960   0.0703960), wk =   0.0218480
        k(   28) = (  -0.0117327  -0.0586633   0.0586633), wk =   0.0218480
        k(   29) = (  -0.0000000  -0.0469307   0.0469307), wk =   0.0109240
        k(   30) = (   0.0703960   0.0000000   0.0000000), wk =   0.0054620
        k(   31) = (   0.0821287   0.0117327  -0.0117327), wk =   0.0218480
        k(   32) = (   0.0938613   0.0234653  -0.0234653), wk =   0.0218480
        k(   33) = (   0.1055940   0.0351980  -0.0351980), wk =   0.0218480
        k(   34) = (  -0.0351980  -0.1055940   0.1055940), wk =   0.0218480
        k(   35) = (  -0.0234653  -0.0938613   0.0938613), wk =   0.0218480
        k(   36) = (  -0.0117327  -0.0821287   0.0821287), wk =   0.0218480
        k(   37) = (  -0.0000000  -0.0703960   0.0703960), wk =   0.0109240
        k(   38) = (   0.0938613   0.0000000   0.0000000), wk =   0.0054620
        k(   39) = (   0.1055940   0.0117327  -0.0117327), wk =   0.0218480
        k(   40) = (   0.1173267   0.0234653  -0.0234653), wk =   0.0218480
        k(   41) = (  -0.0234653  -0.1173267   0.1173267), wk =   0.0218480
        k(   42) = (  -0.0117327  -0.1055940   0.1055940), wk =   0.0218480
        k(   43) = (  -0.0000000  -0.0938613   0.0938613), wk =   0.0109240
        k(   44) = (   0.1173267  -0.0000000  -0.0000000), wk =   0.0054620
        k(   45) = (   0.1290593   0.0117327  -0.0117327), wk =   0.0218480
        k(   46) = (  -0.0117327  -0.1290593   0.1290593), wk =   0.0218480
        k(   47) = (  -0.0000000  -0.1173267   0.1173267), wk =   0.0109240
        k(   48) = (   0.1407920   0.0000000   0.0000000), wk =   0.0054620
        k(   49) = (  -0.0000000  -0.1407920   0.1407920), wk =   0.0109240
        k(   50) = (   0.0469307   0.0234653  -0.0000000), wk =   0.0218480
        k(   51) = (   0.0586633   0.0351980  -0.0117327), wk =   0.0436959
        k(   52) = (   0.0703960   0.0469307  -0.0234653), wk =   0.0436959
        k(   53) = (   0.0821287   0.0586633  -0.0351980), wk =   0.0436959
        k(   54) = (  -0.0586633  -0.0821287   0.1055940), wk =   0.0436959
        k(   55) = (   0.0703960   0.0234653   0.0000000), wk =   0.0218480
        k(   56) = (   0.0821287   0.0351980  -0.0117327), wk =   0.0436959
        k(   57) = (   0.0938613   0.0469307  -0.0234653), wk =   0.0436959
        k(   58) = (  -0.0469307  -0.0938613   0.1173267), wk =   0.0436959
        k(   59) = (  -0.0351980  -0.0821287   0.1055940), wk =   0.0436959
        k(   60) = (  -0.0234653  -0.0703960   0.0938613), wk =   0.0436959
[...]
        k(   70) = (  -0.0234653  -0.1173267   0.1407920), wk =   0.0436959
        k(   71) = (  -0.0117327  -0.1055940   0.1290593), wk =   0.0436959
        k(   72) = (  -0.0000000  -0.0938613   0.1173267), wk =   0.0218480
        k(   73) = (  -0.0117327  -0.1290593   0.1525247), wk =   0.0218480
        k(   74) = (  -0.0000000  -0.1173267   0.1407920), wk =   0.0218480
        k(   75) = (   0.0938613   0.0469307  -0.0000000), wk =   0.0218480
        k(   76) = (  -0.0469307  -0.0938613   0.1407920), wk =   0.0436959
        k(   77) = (  -0.0351980  -0.0821287   0.1290593), wk =   0.0436959
        k(   78) = (  -0.0351980  -0.1055940   0.1525247), wk =   0.0218480
        k(   79) = (  -0.0234653  -0.0938613   0.1407920), wk =   0.0436959
        k(   80) = (  -0.0117327  -0.0821287   0.1290593), wk =   0.0436959
        k(   81) = (  -0.0000000  -0.0703960   0.1173267), wk =   0.0218480
        k(   82) = (  -0.0117327  -0.1055940   0.1525247), wk =   0.0218480
        k(   83) = (  -0.0000000  -0.0938613   0.1407920), wk =   0.0218480
        k(   84) = (  -0.0117327  -0.0821287   0.1525247), wk =   0.0218480

     Initial potential from superposition of free atoms

     starting charge   47.99445, renormalised to   50.00000
     Starting wfcs are   46 randomized atomic wfcs

     Self-consistent Calculation

[...]

     total energy              =    -469.16141107 Ry
     Harris-Foulkes estimate   =    -469.16141107 Ry
     estimated scf accuracy    <          4.0E-12 Ry

     iteration # 37     ecut=    50.00 Ry     beta= 0.60
     Davidson diagonalization with overlap
     ethr =  1.00E-13,  avg # of iterations =  1.1

     End of self-consistent calculation

[...]

          k = 0.0939 0.0469-0.0000 (  2836 PWs)   bands (ev):

[...]

          k =-0.0117-0.0821 0.1525 (  2832 PWs)   bands (ev):

   -40.7471 -40.7374 -38.4382 -38.4176 -17.2116 -17.2116 -17.0745 -17.0436
   -16.8774 -16.8707 -14.8894 -14.8746 -14.5558 -14.4956 -14.1879 -14.1815
    12.6400  12.7577  13.0865  13.3128  14.9860  15.0824  15.1240  15.3540
    15.6054  15.7486  15.8354  15.8748  17.6801  17.8318

     the Fermi energy is    15.6958 ev

!    total energy              =    -469.16141107 Ry
     Harris-Foulkes estimate   =    -469.16141107 Ry
     estimated scf accuracy    <          5.6E-14 Ry

     The total energy is the sum of the following terms:

     one-electron contribution =    -114.31244898 Ry
     hartree contribution      =      78.55515572 Ry
     xc contribution           =     -65.95392590 Ry
     ewald contribution        =    -367.44706378 Ry
     smearing contrib. (-TS)   =      -0.00312812 Ry

     convergence has been achieved in  37 iterations

     Forces acting on atoms (cartesian axes, Ry/au):

     atom    1 type  2   force =     0.00000000    0.00000000   -0.00000000
     atom    2 type  2   force =     0.00000000   -0.00000000   -0.00000000
     atom    3 type  1   force =     0.00000000   -0.00000000   -0.00000000
     atom    4 type  1   force =     0.00000000   -0.00000000   -0.00000000

     Total force =     0.000000     Total SCF correction =     0.000000

     Computing stress (Cartesian axis) and pressure

          total   stress  (Ry/bohr**3)                   (kbar)     P=   -0.84
  -0.00000572  -0.00000000  -0.00000000         -0.84     -0.00     -0.00
  -0.00000000  -0.00000572  -0.00000000         -0.00     -0.84     -0.00
   0.00000000  -0.00000000  -0.00000572          0.00     -0.00     -0.84

     General routines

     Parallel routines

      53h

   This run was terminated on:   5:44:41  14Jan2020

   JOB DONE.