     Program PWSCF v.6.3MaX starts on 26Feb2020 at 21:36:42

     R & G space division:  proc/nbgrp/npool/nimage =       4
     Waiting for input...
     Reading input from standard input

     Current dimensions of program PWSCF are:
     Max number of different atomic species (ntypx) = 10
     Max number of k-points (npk) =  40000
     Max angular momentum in pseudopotentials (lmaxx) =  3
     Message from routine iosys:
     minimal I/O required, wf_collect reset to FALSE

     Subspace diagonalization in iterative solution of the eigenvalue problem:
     a serial algorithm will be used

     bravais-lattice index     =            0
     lattice parameter (alat)  =       1.8897  a.u.
     unit-cell volume          =     880.0102 (a.u.)^3
     number of atoms/cell      =            6
     number of atomic types    =            2
     number of electrons       =        76.00
     number of Kohn-Sham states=           46
     kinetic-energy cutoff     =      50.0000  Ry
     charge density cutoff     =     500.0000  Ry
     convergence threshold     =      1.0E-10
     mixing beta               =       0.6000
     number of iterations used =            8  plain     mixing
     Exchange-correlation      = SLA PW PBE PBE ( 1  4  3  4 0 0)
     nstep                     =           50

     celldm(1)=   1.889726  celldm(2)=   0.000000  celldm(3)=   0.000000
     celldm(4)=   0.000000  celldm(5)=   0.000000  celldm(6)=   0.000000

     crystal axes: (cart. coord. in units of alat)
               a(1) = (   5.274095   1.758031   1.758031 )
               a(2) = (   1.758031  -5.274095   1.758031 )
               a(3) = (  -1.758031   1.758031  -5.274095 )

     reciprocal axes: (cart. coord. in units 2 pi/alat)
               b(1) = (  0.189606  0.047402 -0.047402 )
               b(2) = (  0.094803 -0.189606 -0.094803 )
               b(3) = (  0.094803 -0.047402 -0.237008 )

     PseudoPot. # 1 for Nb read from file:
     ./Nb.pbe-nsp-van.UPF
     MD5 check sum: 0a22fc7fb0ba19a08ca5db297a5d2854
     Pseudo is Ultrasoft + core correction, Zval = 13.0
     Generated by new atomic code, or converted to UPF format
     Using radial grid of  887 points,  6 beta functions with:
                l(1) =   0
                l(2) =   0
                l(3) =   1
                l(4) =   1
                l(5) =   2
                l(6) =   2
     Q(r) pseudized with  6 coefficients,  rinner =    1.000   1.000   1.000
                                                       1.000   1.000

     PseudoPot. # 2 for Ti read from file:
     ./Ti.pbe-sp-van_ak.UPF
     MD5 check sum: f98fea3e8887528921fefa5636a534ca
     Pseudo is Ultrasoft, Zval = 12.0
     Generated by new atomic code, or converted to UPF format
     Using radial grid of  851 points,  6 beta functions with:
                l(1) =   0
                l(2) =   0
                l(3) =   1
                l(4) =   1
                l(5) =   2
                l(6) =   2
     Q(r) pseudized with  8 coefficients,  rinner =    1.000   1.000   1.000
                                                       1.000   1.000

     atomic species   valence    mass     pseudopotential
        Nb            13.00    92.90638     Nb( 1.00)
        Ti            12.00    47.86700     Ti( 1.00)

      4 Sym. Ops., with inversion, found

   Cartesian axes

     site n.     atom                  positions (alat units)
         1           Nb  tau(   1) = (   3.5160633  -3.5160633   0.0000000  )
         2           Ti  tau(   2) = (   3.5160633   0.0000000   0.0000000  )
         3           Ti  tau(   3) = (   1.7580316  -1.7580316  -1.7580316  )
         4           Nb  tau(   4) = (   5.2740949  -1.7580316   1.7580316  )
         5           Nb  tau(   5) = (   5.2740949  -1.7580316  -1.7580316  )
         6           Nb  tau(   6) = (   0.0000000   0.0000000  -3.5160633  )

     number of k points=   476  Marzari-Vanderbilt smearing, width (Ry)=  0.0200

     Number of k-points >= 100: set verbosity='high' to print them.

     Initial potential from superposition of free atoms

     starting charge   73.98898, renormalised to   76.00000
     Starting wfcs are   72 randomized atomic wfcs

     Self-consistent Calculation

     iteration #  1     ecut=    50.00 Ry     beta= 0.60
     Davidson diagonalization with overlap
     ethr =  1.00E-02,  avg # of iterations =  2.4

     total energy              =    -671.15866759 Ry
     Harris-Foulkes estimate   =    -708.24155928 Ry
     estimated scf accuracy    <      46.47049869 Ry

[...]

     iteration # 18     ecut=    50.00 Ry     beta= 0.60
     Davidson diagonalization with overlap
     c_bands:  1 eigenvalues not converged
     ethr =  4.35E-05,  avg # of iterations =  3.0

[...]

     End of self-consistent calculation

     Number of k-points >= 100: set verbosity='high' to print the bands.

     the Fermi energy is    12.9099 ev

!    total energy              =    -704.89264421 Ry
     Harris-Foulkes estimate   =    -704.89264421 Ry
     estimated scf accuracy    <          6.6E-11 Ry

     The total energy is the sum of the following terms:

     one-electron contribution =    -199.65181131 Ry
     hartree contribution      =     124.08677781 Ry
     xc contribution           =    -101.74178565 Ry
     ewald contribution        =    -527.58652031 Ry
     smearing contrib. (-TS)   =       0.00069526 Ry

     convergence has been achieved in  32 iterations

     Forces acting on atoms (cartesian axes, Ry/au):

     atom    1 type  1   force =     0.00000000    0.00000000    0.00000000
     atom    2 type  2   force =     0.01058731    0.00196690   -0.00196690
     atom    3 type  2   force =    -0.01058731   -0.00196690    0.00196690
     atom    4 type  1   force =     0.00672274   -0.00765649    0.00765649
     atom    5 type  1   force =     0.00000000    0.00000000    0.00000000
     atom    6 type  1   force =    -0.00672274    0.00765649   -0.00765649

     Total force =     0.023760     Total SCF correction =     0.000007

     Computing stress (Cartesian axis) and pressure

          total   stress  (Ry/bohr**3)                   (kbar)     P= -208.70
  -0.00143223   0.00000703  -0.00000703       -210.69      1.03     -1.03
   0.00000703  -0.00141198  -0.00000992          1.03   -207.71     -1.46
  -0.00000703  -0.00000992  -0.00141198         -1.03     -1.46   -207.71

     BFGS Geometry Optimization

     number of scf cycles    =   1
     number of bfgs steps    =   0

     enthalpy new            =    -704.8926442133 Ry

     new trust radius        =       0.2124397214 bohr
     new conv_thr            =            1.0E-10 Ry

     new unit-cell volume =    789.65473 a.u.^3 (   117.01476 Ang^3 )
     density =      6.63223 g/cm^3

CELL_PARAMETERS (alat=  1.88972599)
   5.085252181   1.696464665   1.694610921
   1.693848231  -5.088048694   1.696973107
  -1.693848231   1.696973107  -5.088048694

ATOMIC_POSITIONS (angstrom)
Nb       3.389550206  -3.391329808   0.000254221
Ti       3.395570444   0.001623254  -0.001623254
Ti       1.689681737  -1.696234175  -1.694841411
Nb       5.088062986  -1.699392057   1.699392057
Nb       5.085252181  -1.694610921  -1.696464665
Nb      -0.002810805   0.004781136  -3.395856722

     NEW-OLD atomic charge density approx. for the potential
     extrapolated charge   67.53388, renormalised to   76.00000

[...]

     enthalpy old            =    -704.8926442133 Ry
     enthalpy new            =    -704.9967860428 Ry

     CASE: enthalpy_new < enthalpy_old

[...]

     Threshold (ethr) on eigenvalues was too large:
     Diagonalizing with lowered threshold

     Davidson diagonalization with overlap
     ethr =  6.83E-08,  avg # of iterations =  1.2

[...]

     small trust_radius: resetting bfgs history

[...]

     number of scf cycles    =  24
     number of bfgs steps    =  23

     enthalpy old            =    -705.0310177544 Ry
     enthalpy new            =    -705.0310177556 Ry

     CASE: enthalpy_new < enthalpy_old

     Message from routine bfgs:
     history already reset at previous step: stopping
     small trust_radius: resetting bfgs history

     new trust radius        =       0.0000117918 bohr
     new conv_thr            =            1.0E-12 Ry

     new unit-cell volume =    718.36184 a.u.^3 (   106.45024 Ang^3 )
     density =      7.29044 g/cm^3

[...]

ATOMIC_POSITIONS (angstrom)
Nb       3.251998259  -3.274871742  -0.009590005
Ti       3.334045934   0.040335929  -0.040335929
Ti       1.572250906  -1.654170493  -1.630291254
Nb       4.885948203  -1.671393027   1.671393027
Nb       4.906296841  -1.613834564  -1.670627183
Nb       0.020348638   0.057558463  -3.342020210

     NEW-OLD atomic charge density approx. for the potential
     extrapolated charge   75.99980, renormalised to   76.00000

[...]

     Threshold (ethr) on eigenvalues was too large:
     Diagonalizing with lowered threshold

     Davidson diagonalization with overlap
     ethr =  3.22E-12,  avg # of iterations =  3.0

[...]

     bfgs converged in  25 scf cycles and  24 bfgs steps
     (criteria: energy <  1.0E-10 Ry, force <  1.0E-05Ry/Bohr, cell <  1.0E-03kbar)

     End of BFGS Geometry Optimization

     Final enthalpy =    -705.0310177560 Ry
Begin final coordinates
     new unit-cell volume =    718.36184 a.u.^3 (   106.45024 Ang^3 )
     density =      7.29044 g/cm^3

CELL_PARAMETERS (alat=  1.88972599)
   4.906296841   1.670627183   1.613834564
   1.597699677  -4.935908920   1.651447173
  -1.597699677   1.651447173  -4.935908920

ATOMIC_POSITIONS (angstrom)
Nb       3.251998259  -3.274871742  -0.009590005
Ti       3.334045934   0.040335929  -0.040335929
Ti       1.572250906  -1.654170493  -1.630291254
Nb       4.885948203  -1.671393027   1.671393027
Nb       4.906296841  -1.613834564  -1.670627183
Nb       0.020348638   0.057558463  -3.342020210
End final coordinates

     A final scf calculation at the relaxed structure.
     The G-vectors are recalculated for the final unit cell
     Results may differ from those at the preceding step.

     bravais-lattice index     =            0
     lattice parameter (alat)  =       1.8897  a.u.
     unit-cell volume          =     718.3618 (a.u.)^3
     number of atoms/cell      =            6
     number of atomic types    =            2
     number of electrons       =        76.00
     number of Kohn-Sham states=           46
     kinetic-energy cutoff     =      50.0000  Ry
     charge density cutoff     =     500.0000  Ry
     convergence threshold     =      1.0E-12
     mixing beta               =       0.6000
     number of iterations used =            8  plain     mixing
     Exchange-correlation      = SLA PW PBE PBE ( 1  4  3  4 0 0)

     celldm(1)=   1.889726  celldm(2)=   0.000000  celldm(3)=   0.000000
     celldm(4)=   0.000000  celldm(5)=   0.000000  celldm(6)=   0.000000

     crystal axes: (cart. coord. in units of alat)
               a(1) = (   4.906297   1.670627   1.613835 )
               a(2) = (   1.597700  -4.935909   1.651447 )
               a(3) = (  -1.597700   1.651447  -4.935909 )

     reciprocal axes: (cart. coord. in units 2 pi/alat)
               b(1) = (  0.203249  0.049296 -0.049296 )
               b(2) = (  0.102501 -0.203274 -0.101190 )
               b(3) = (  0.100748 -0.051893 -0.252570 )

     PseudoPot. # 1 for Nb read from file:
     ./Nb.pbe-nsp-van.UPF
     MD5 check sum: 0a22fc7fb0ba19a08ca5db297a5d2854
     Pseudo is Ultrasoft + core correction, Zval = 13.0
     Generated by new atomic code, or converted to UPF format
     Using radial grid of  887 points,  6 beta functions with:
                l(1) =   0
                l(2) =   0
                l(3) =   1
                l(4) =   1
                l(5) =   2
                l(6) =   2
     Q(r) pseudized with  6 coefficients,  rinner =    1.000   1.000   1.000
                                                       1.000   1.000

     PseudoPot. # 2 for Ti read from file:
     ./Ti.pbe-sp-van_ak.UPF
     MD5 check sum: f98fea3e8887528921fefa5636a534ca
     Pseudo is Ultrasoft, Zval = 12.0
     Generated by new atomic code, or converted to UPF format
     Using radial grid of  851 points,  6 beta functions with:
                l(1) =   0
                l(2) =   0
                l(3) =   1
                l(4) =   1
                l(5) =   2
                l(6) =   2
     Q(r) pseudized with  8 coefficients,  rinner =    1.000   1.000   1.000
                                                       1.000   1.000

     atomic species   valence    mass     pseudopotential
        Nb            13.00    92.90638     Nb( 1.00)
        Ti            12.00    47.86700     Ti( 1.00)

      4 Sym. Ops., with inversion, found

   Cartesian axes

     site n.     atom                  positions (alat units)
         1           Nb  tau(   1) = (   3.2519985  -3.2748720  -0.0095900  )
         2           Ti  tau(   2) = (   3.3340462   0.0403359  -0.0403359  )
         3           Ti  tau(   3) = (   1.5722510  -1.6541706  -1.6302914  )
         4           Nb  tau(   4) = (   4.8859486  -1.6713932   1.6713932  )
         5           Nb  tau(   5) = (   4.9062972  -1.6138347  -1.6706273  )
         6           Nb  tau(   6) = (   0.0203486   0.0575585  -3.3420205  )

     number of k points=   476  Marzari-Vanderbilt smearing, width (Ry)=  0.0200

     Number of k-points >= 100: set verbosity='high' to print them.

     Initial potential from superposition of free atoms

     starting charge   73.98898, renormalised to   76.00000
     Starting wfcs are   72 randomized atomic wfcs

     Self-consistent Calculation

     iteration #  1     ecut=    50.00 Ry     beta= 0.60
     Davidson diagonalization with overlap
     c_bands:  1 eigenvalues not converged
     c_bands:  1 eigenvalues not converged
     ethr =  1.00E-06,  avg # of iterations = 11.7

[...]

     total energy              =    -705.03029750 Ry
     Harris-Foulkes estimate   =    -705.03029750 Ry
     estimated scf accuracy    <          6.3E-12 Ry

     iteration # 28     ecut=    50.00 Ry     beta= 0.60
     Davidson diagonalization with overlap
     ethr =  1.00E-13,  avg # of iterations =  1.0

     End of self-consistent calculation

     Number of k-points >= 100: set verbosity='high' to print the bands.

     the Fermi energy is    16.4554 ev

!    total energy              =    -705.03029750 Ry
     Harris-Foulkes estimate   =    -705.03029750 Ry
     estimated scf accuracy    <          2.6E-13 Ry

     The total energy is the sum of the following terms:

     one-electron contribution =    -146.48695325 Ry
     hartree contribution      =     108.60641146 Ry
     xc contribution           =    -102.85204395 Ry
     ewald contribution        =    -564.29766477 Ry
     smearing contrib. (-TS)   =      -0.00004699 Ry

     convergence has been achieved in  28 iterations

     Forces acting on atoms (cartesian axes, Ry/au):

     atom    1 type  1   force =     0.00000000    0.00000000    0.00000000
     atom    2 type  2   force =     0.00000101    0.00000268   -0.00000268
     atom    3 type  2   force =    -0.00000101   -0.00000268    0.00000268
     atom    4 type  1   force =     0.00001202   -0.00000574    0.00000574
     atom    5 type  1   force =     0.00000000    0.00000000    0.00000000
     atom    6 type  1   force =    -0.00001202    0.00000574   -0.00000574

     Total force =     0.000021     Total SCF correction =     0.000001

     Computing stress (Cartesian axis) and pressure

          total   stress  (Ry/bohr**3)                   (kbar)     P=   -1.19
  -0.00000799  -0.00000007   0.00000007         -1.18     -0.01      0.01
  -0.00000007  -0.00000814  -0.00000011         -0.01     -1.20     -0.02
   0.00000007  -0.00000011  -0.00000814          0.01     -0.02     -1.20

     General routines

     Parallel routines

      30h

   This run was terminated on:  10: 7:22  27Feb2020

   JOB DONE.