     Program PWSCF v.6.0 (svn rev. 13079) starts on 29Apr2018 at 11:33:31

     Current dimensions of program PWSCF are:
     Max number of different atomic species (ntypx) = 10
     Max number of k-points (npk) =  40000
     Max angular momentum in pseudopotentials (lmaxx) =  3

     Subspace diagonalization in iterative solution of the eigenvalue problem:
     a serial algorithm will be used

     bravais-lattice index     =            0
     lattice parameter (alat)  =       1.8897  a.u.
     unit-cell volume          =     538.8952 (a.u.)^3
     number of atoms/cell      =            4
     number of atomic types    =            2
     number of electrons       =        50.00
     number of Kohn-Sham states=           30
     kinetic-energy cutoff     =      40.0000  Ry
     charge density cutoff     =     400.0000  Ry
     convergence threshold     =      1.0E-10
     mixing beta               =       0.6000
     number of iterations used =            8  plain     mixing
     Exchange-correlation      = SLA  PW   PBE  PBE ( 1  4  3  4 0 0)
     nstep                     =           50

     celldm(1)=   1.889726  celldm(2)=   0.000000  celldm(3)=   0.000000
     celldm(4)=   0.000000  celldm(5)=   0.000000  celldm(6)=   0.000000

     crystal axes: (cart. coord. in units of alat)
               a(1) = (   1.522502  -2.637051   0.000000 )
               a(2) = (   0.000000   0.000000  -4.972461 )
               a(3) = (   4.567506   2.637051   0.000000 )

     reciprocal axes: (cart. coord. in units 2 pi/alat)
               b(1) = (  0.164203 -0.284409  0.000000 )
               b(2) = (  0.000000  0.000000 -0.201108 )
               b(3) = (  0.164203  0.094803  0.000000 )

     PseudoPot. # 1 for Nb read from file:
     ./Nb.pbe-nsp-van.UPF
     MD5 check sum: 0a22fc7fb0ba19a08ca5db297a5d2854
     Pseudo is Ultrasoft + core correction, Zval = 13.0
     Generated by new atomic code, or converted to UPF format
     Using radial grid of  887 points,  6 beta functions with:
                l(1) =   0
                l(2) =   0
                l(3) =   1
                l(4) =   1
                l(5) =   2
                l(6) =   2
     Q(r) pseudized with  6 coefficients,  rinner =    1.000   1.000   1.000
                                                       1.000   1.000

     PseudoPot. # 2 for Ti read from file:
     ./Ti.pbe-sp-van_ak.UPF
     MD5 check sum: f98fea3e8887528921fefa5636a534ca
     Pseudo is Ultrasoft, Zval = 12.0
     Generated by new atomic code, or converted to UPF format
     Using radial grid of  851 points,  6 beta functions with:
                l(1) =   0
                l(2) =   0
                l(3) =   1
                l(4) =   1
                l(5) =   2
                l(6) =   2
     Q(r) pseudized with  8 coefficients,  rinner =    1.000   1.000   1.000
                                                       1.000   1.000

     atomic species   valence    mass     pseudopotential
        Nb            13.00    92.90638     Nb( 1.00)
        Ti            12.00    47.86700     Ti( 1.00)

      4 Sym. Ops. (no inversion) found
          (note:  4 additional sym.ops. were found but ignored
           their fractional translations are incommensurate with FFT grid)

   Cartesian axes

     site n.     atom                  positions (alat units)
         1           Nb  tau(   1) = (   3.0450042   0.0000000  -4.9724614  )
         2           Ti  tau(   2) = (   3.0450058  -1.7580350  -2.4862307  )
         3           Ti  tau(   3) = (   6.0900085   0.0000000  -4.9724614  )
         4           Nb  tau(   4) = (   4.5675079   0.8790162  -2.4862307  )

     number of k points=   360  Marzari-Vanderbilt smearing, width (Ry)=  0.0200

     Number of k-points >= 100: set verbosity='high' to print them.

     Initial potential from superposition of free atoms

     starting charge   47.99445, renormalised to   50.00000
     Starting wfc are   46 randomized atomic wfcs

     Self-consistent Calculation

     iteration #  1     ecut=    40.00 Ry     beta=0.60
     Davidson diagonalization with overlap
     ethr =  1.00E-02,  avg # of iterations =  3.1

     total energy              =    -462.09222037 Ry
     Harris-Foulkes estimate   =    -470.60459714 Ry
     estimated scf accuracy    <      10.81765099 Ry

[...]

     End of self-consistent calculation

     Number of k-points >= 100: set verbosity='high' to print the bands.

     the Fermi energy is    13.8461 ev

!    total energy              =    -469.09726389 Ry
     Harris-Foulkes estimate   =    -469.09726389 Ry
     estimated scf accuracy    <          2.6E-12 Ry

     The total energy is the sum of the following terms:

     one-electron contribution =    -136.24163789 Ry
     hartree contribution      =      85.03166220 Ry
     xc contribution           =     -65.49238106 Ry
     ewald contribution        =    -352.38931141 Ry
     smearing contrib. (-TS)   =      -0.00559572 Ry

     convergence has been achieved in  27 iterations

     Forces acting on atoms (Ry/au):

     atom    1 type  1   force =     0.00274090    0.00158246    0.00000000
     atom    2 type  2   force =     0.00094353    0.00054475    0.00000000
     atom    3 type  2   force =    -0.00092736   -0.00053541    0.00000000
     atom    4 type  1   force =    -0.00275707   -0.00159180    0.00000000

     Total force =     0.004742     Total SCF correction =     0.000003

     entering subroutine stress ...

          total   stress  (Ry/bohr**3)                   (kbar)     P= -127.75
  -0.00089523   0.00003711   0.00000000       -131.69      5.46      0.00
   0.00003711  -0.00093809   0.00000000          5.46   -138.00      0.00
   0.00000000   0.00000000  -0.00077203          0.00      0.00   -113.57

     BFGS Geometry Optimization

     number of scf cycles    =   1
     number of bfgs steps    =   0

     enthalpy new            =    -469.0972638851 Ry

     new trust radius        =       0.1089694295 bohr
     new conv_thr            =            1.0E-10 Ry

     new unit-cell volume =    504.54851 a.u.^3 (    74.76637 Ang^3 )

CELL_PARAMETERS (alat=  1.88972599)
   1.485980466  -2.573793851   0.000000000
   0.000000000   0.000000000  -4.876488302
   4.467728129   2.579444223   0.000000000

ATOMIC_POSITIONS (angstrom)
Nb       2.978273036   0.003644295  -4.876488302
Ti       2.975713049  -1.713697998  -2.438244151
Ti       5.953228579   0.005373235  -4.876488302
Nb       4.464671386   0.861815129  -2.438244151

     NEW-OLD atomic charge density approx. for the potential

     Check: negative/imaginary core charge=   -0.000001    0.000000
     extrapolated charge   46.73282, renormalised to   50.00000

[...]

     iteration #  1     ecut=    40.00 Ry     beta=0.60
     Davidson diagonalization with overlap
     c_bands:  2 eigenvalues not converged
     c_bands:  2 eigenvalues not converged
     c_bands:  3 eigenvalues not converged
     c_bands:  1 eigenvalues not converged
     c_bands:  1 eigenvalues not converged
     c_bands:  3 eigenvalues not converged
     c_bands:  2 eigenvalues not converged
     c_bands:  1 eigenvalues not converged
     c_bands:  1 eigenvalues not converged
     c_bands:  4 eigenvalues not converged
     c_bands:  1 eigenvalues not converged
     c_bands:  1 eigenvalues not converged
     c_bands:  1 eigenvalues not converged
     c_bands:  2 eigenvalues not converged
     c_bands:  1 eigenvalues not converged
     c_bands:  1 eigenvalues not converged
     c_bands:  1 eigenvalues not converged
     c_bands:  1 eigenvalues not converged
     c_bands:  1 eigenvalues not converged
     c_bands:  1 eigenvalues not converged
     c_bands:  1 eigenvalues not converged
     c_bands:  1 eigenvalues not converged
     c_bands:  1 eigenvalues not converged
     c_bands:  1 eigenvalues not converged
     c_bands:  1 eigenvalues not converged
     c_bands:  1 eigenvalues not converged
     c_bands:  1 eigenvalues not converged
     c_bands:  1 eigenvalues not converged
     c_bands:  1 eigenvalues not converged
     c_bands:  1 eigenvalues not converged
     c_bands:  1 eigenvalues not converged
     c_bands:  1 eigenvalues not converged
     c_bands:  1 eigenvalues not converged
     c_bands:  1 eigenvalues not converged
     c_bands:  1 eigenvalues not converged
     c_bands:  1 eigenvalues not converged
     c_bands:  1 eigenvalues not converged
     c_bands:  1 eigenvalues not converged
     c_bands:  1 eigenvalues not converged
     c_bands:  1 eigenvalues not converged
     c_bands:  1 eigenvalues not converged
     c_bands:  1 eigenvalues not converged
     c_bands:  1 eigenvalues not converged
     c_bands:  1 eigenvalues not converged
     c_bands:  1 eigenvalues not converged
     c_bands:  1 eigenvalues not converged
     c_bands:  1 eigenvalues not converged
     c_bands:  1 eigenvalues not converged
     c_bands:  1 eigenvalues not converged
     c_bands:  1 eigenvalues not converged
     c_bands:  1 eigenvalues not converged
     c_bands:  1 eigenvalues not converged
     c_bands:  1 eigenvalues not converged
     c_bands:  1 eigenvalues not converged
     c_bands:  1 eigenvalues not converged
     c_bands:  1 eigenvalues not converged
     c_bands:  1 eigenvalues not converged
     c_bands:  1 eigenvalues not converged
     c_bands:  1 eigenvalues not converged
     c_bands:  1 eigenvalues not converged
[...]
     c_bands:  1 eigenvalues not converged
     c_bands:  1 eigenvalues not converged
     c_bands:  1 eigenvalues not converged
     c_bands:  2 eigenvalues not converged
     c_bands:  2 eigenvalues not converged
     c_bands:  2 eigenvalues not converged
     c_bands:  2 eigenvalues not converged
     c_bands:  1 eigenvalues not converged
     c_bands:  1 eigenvalues not converged
     c_bands:  1 eigenvalues not converged
     c_bands:  1 eigenvalues not converged
     c_bands:  1 eigenvalues not converged
     c_bands:  2 eigenvalues not converged
     c_bands:  1 eigenvalues not converged
     c_bands:  1 eigenvalues not converged
     ethr =  1.00E-06,  avg # of iterations = 16.8

[...]

     enthalpy old            =    -469.0972638851 Ry
     enthalpy new            =    -469.1197375062 Ry

     CASE: enthalpy_new < enthalpy_old

[...]

     NEW-OLD atomic charge density approx. for the potential

     Check: negative/imaginary core charge=   -0.000001    0.000000
     extrapolated charge   50.04261, renormalised to   50.00000

[...]

     NEW-OLD atomic charge density approx. for the potential
     extrapolated charge   49.88008, renormalised to   50.00000

[...]

     WARNING: bfgs curvature condition failed, Theta= 0.958
     new trust radius        =       0.0185589935 bohr
     new conv_thr            =            1.0E-10 Ry

[...]

     Threshold (ethr) on eigenvalues was too large:
     Diagonalizing with lowered threshold

     Davidson diagonalization with overlap
     ethr =  6.47E-10,  avg # of iterations =  2.1

[...]

     Total force =     0.000014     Total SCF correction =     0.000002
     SCF correction compared to forces is large: reduce conv_thr to get better values

[...]

     small trust_radius: resetting bfgs history

[...]

     number of scf cycles    =  30
     number of bfgs steps    =  29

     enthalpy old            =    -469.1385698737 Ry
     enthalpy new            =    -469.1385698741 Ry

     CASE: enthalpy_new < enthalpy_old

     Message from routine bfgs:
     history already reset at previous step: stopping
     small trust_radius: resetting bfgs history

     new trust radius        =       0.0000075621 bohr
     new conv_thr            =            1.0E-12 Ry

     new unit-cell volume =    479.33610 a.u.^3 (    71.03028 Ang^3 )

[...]

ATOMIC_POSITIONS (angstrom)
Nb       3.162674695   0.233141248  -4.794504489
Ti       2.766422105  -1.588466823  -2.397252245
Ti       6.193085706   0.389920027  -4.794504489
Nb       4.417471148   0.957596792  -2.397252245

     NEW-OLD atomic charge density approx. for the potential
     extrapolated charge   49.99998, renormalised to   50.00000

[...]

     Threshold (ethr) on eigenvalues was too large:
     Diagonalizing with lowered threshold

     Davidson diagonalization with overlap
     ethr =  5.48E-13,  avg # of iterations =  4.0

[...]

     Total force =     0.000010     Total SCF correction =     0.000003
     SCF correction compared to forces is large: reduce conv_thr to get better values

[...]

     bfgs converged in  31 scf cycles and  30 bfgs steps
     (criteria: energy <  1.0E-10, force <  1.0E-05, cell <  1.0E-03)

     End of BFGS Geometry Optimization

     Final enthalpy =    -469.1385698741 Ry
Begin final coordinates
     new unit-cell volume =    479.33610 a.u.^3 (    71.03028 Ang^3 )

CELL_PARAMETERS (alat=  1.88972599)
   1.379431093  -2.389244927   0.000000000
   0.000000000   0.000000000  -4.794504489
   4.650509042   2.684972821   0.000000000

ATOMIC_POSITIONS (angstrom)
Nb       3.162674695   0.233141248  -4.794504489
Ti       2.766422105  -1.588466823  -2.397252245
Ti       6.193085706   0.389920027  -4.794504489
Nb       4.417471148   0.957596792  -2.397252245
End final coordinates

     A final scf calculation at the relaxed structure.
     The G-vectors are recalculated for the final unit cell
     Results may differ from those at the preceding step.

   Info: using nr1, nr2, nr3 values from input

   Info: using nr1, nr2, nr3 values from input

     bravais-lattice index     =            0
     lattice parameter (alat)  =       1.8897  a.u.
     unit-cell volume          =     479.3361 (a.u.)^3
     number of atoms/cell      =            4
     number of atomic types    =            2
     number of electrons       =        50.00
     number of Kohn-Sham states=           30
     kinetic-energy cutoff     =      40.0000  Ry
     charge density cutoff     =     400.0000  Ry
     convergence threshold     =      1.0E-12
     mixing beta               =       0.6000
     number of iterations used =            8  plain     mixing
     Exchange-correlation      = SLA  PW   PBE  PBE ( 1  4  3  4 0 0)

     celldm(1)=   1.889726  celldm(2)=   0.000000  celldm(3)=   0.000000
     celldm(4)=   0.000000  celldm(5)=   0.000000  celldm(6)=   0.000000

     crystal axes: (cart. coord. in units of alat)
               a(1) = (   1.379431  -2.389245   0.000000 )
               a(2) = (   0.000000   0.000000  -4.794504 )
               a(3) = (   4.650509   2.684973   0.000000 )

     reciprocal axes: (cart. coord. in units 2 pi/alat)
               b(1) = (  0.181234 -0.313907  0.000000 )
               b(2) = (  0.000000  0.000000 -0.208572 )
               b(3) = (  0.161273  0.093111  0.000000 )

     PseudoPot. # 1 for Nb read from file:
     ./Nb.pbe-nsp-van.UPF
     MD5 check sum: 0a22fc7fb0ba19a08ca5db297a5d2854
     Pseudo is Ultrasoft + core correction, Zval = 13.0
     Generated by new atomic code, or converted to UPF format
     Using radial grid of  887 points,  6 beta functions with:
                l(1) =   0
                l(2) =   0
                l(3) =   1
                l(4) =   1
                l(5) =   2
                l(6) =   2
     Q(r) pseudized with  6 coefficients,  rinner =    1.000   1.000   1.000
                                                       1.000   1.000

     PseudoPot. # 2 for Ti read from file:
     ./Ti.pbe-sp-van_ak.UPF
     MD5 check sum: f98fea3e8887528921fefa5636a534ca
     Pseudo is Ultrasoft, Zval = 12.0
     Generated by new atomic code, or converted to UPF format
     Using radial grid of  851 points,  6 beta functions with:
                l(1) =   0
                l(2) =   0
                l(3) =   1
                l(4) =   1
                l(5) =   2
                l(6) =   2
     Q(r) pseudized with  8 coefficients,  rinner =    1.000   1.000   1.000
                                                       1.000   1.000

     atomic species   valence    mass     pseudopotential
        Nb            13.00    92.90638     Nb( 1.00)
        Ti            12.00    47.86700     Ti( 1.00)

      4 Sym. Ops. (no inversion) found
          (note:  4 additional sym.ops. were found but ignored
           their fractional translations are incommensurate with FFT grid)

   Cartesian axes

     site n.     atom                  positions (alat units)
         1           Nb  tau(   1) = (   3.1626749   0.2331413  -4.7945049  )
         2           Ti  tau(   2) = (   2.7664223  -1.5884669  -2.3972524  )
         3           Ti  tau(   3) = (   6.1930862   0.3899201  -4.7945049  )
         4           Nb  tau(   4) = (   4.4174715   0.9575969  -2.3972524  )

     number of k points=   360  Marzari-Vanderbilt smearing, width (Ry)=  0.0200

     Number of k-points >= 100: set verbosity='high' to print them.

     Initial potential from superposition of free atoms

     starting charge   47.99445, renormalised to   50.00000
     Starting wfc are   46 randomized atomic wfcs

     Self-consistent Calculation

[...]

     iteration # 17     ecut=    40.00 Ry     beta=0.60
     Davidson diagonalization with overlap
     c_bands:  1 eigenvalues not converged
     ethr =  6.16E-07,  avg # of iterations =  2.8

[...]

     total energy              =    -469.13632011 Ry
     Harris-Foulkes estimate   =    -469.13632011 Ry
     estimated scf accuracy    <          2.3E-12 Ry

     iteration # 31     ecut=    40.00 Ry     beta=0.60
     Davidson diagonalization with overlap
     ethr =  1.00E-13,  avg # of iterations =  1.0

     End of self-consistent calculation

     Number of k-points >= 100: set verbosity='high' to print the bands.

     the Fermi energy is    15.7136 ev

!    total energy              =    -469.13632011 Ry
     Harris-Foulkes estimate   =    -469.13632011 Ry
     estimated scf accuracy    <          6.8E-15 Ry

     The total energy is the sum of the following terms:

     one-electron contribution =    -116.34360606 Ry
     hartree contribution      =      79.20558171 Ry
     xc contribution           =     -65.92136995 Ry
     ewald contribution        =    -366.07637968 Ry
     smearing contrib. (-TS)   =      -0.00054613 Ry

     convergence has been achieved in  31 iterations

     Forces acting on atoms (Ry/au):

     atom    1 type  1   force =    -0.00000733   -0.00000423    0.00000000
     atom    2 type  2   force =     0.00008648    0.00004993    0.00000000
     atom    3 type  2   force =    -0.00007117   -0.00004109    0.00000000
     atom    4 type  1   force =    -0.00000797   -0.00000460    0.00000000

     Total force =     0.000130     Total SCF correction =     0.000000

     entering subroutine stress ...

          total   stress  (Ry/bohr**3)                   (kbar)     P=   -2.78
  -0.00001156   0.00001160   0.00000000         -1.70      1.71      0.00
   0.00001160  -0.00002496   0.00000000          1.71     -3.67      0.00
   0.00000000   0.00000000  -0.00002011          0.00      0.00     -2.96

     General routines

     Parallel routines

   This run was terminated on:  17: 4: 4  29Apr2018

   JOB DONE.