     Program PWSCF v.6.0 (svn rev. 13079) starts on  1May2018 at 17:42: 6

     Current dimensions of program PWSCF are:
     Max number of different atomic species (ntypx) = 10
     Max number of k-points (npk) =  40000
     Max angular momentum in pseudopotentials (lmaxx) =  3

     Subspace diagonalization in iterative solution of the eigenvalue problem:
     a serial algorithm will be used

     bravais-lattice index     =            0
     lattice parameter (alat)  =       1.8897  a.u.
     unit-cell volume          =     808.3427 (a.u.)^3
     number of atoms/cell      =            6
     number of atomic types    =            2
     number of electrons       =        76.00
     number of Kohn-Sham states=           46
     kinetic-energy cutoff     =      40.0000  Ry
     charge density cutoff     =     400.0000  Ry
     convergence threshold     =      1.0E-10
     mixing beta               =       0.6000
     number of iterations used =            8  plain     mixing
     Exchange-correlation      = SLA  PW   PBE  PBE ( 1  4  3  4 0 0)
     nstep                     =           50

     celldm(1)=   1.889726  celldm(2)=   0.000000  celldm(3)=   0.000000
     celldm(4)=   0.000000  celldm(5)=   0.000000  celldm(6)=   0.000000

     crystal axes: (cart. coord. in units of alat)
               a(1) = (   6.090008   5.274102   0.000000 )
               a(2) = (  -7.612510  -2.637051   0.000000 )
               a(3) = (   0.000000   0.000000   4.972461 )

     reciprocal axes: (cart. coord. in units 2 pi/alat)
               b(1) = ( -0.109469  0.316010  0.000000 )
               b(2) = ( -0.218938  0.252808  0.000000 )
               b(3) = (  0.000000 -0.000000  0.201108 )

     PseudoPot. # 1 for Nb read from file:
     ./Nb.pbe-nsp-van.UPF
     MD5 check sum: 0a22fc7fb0ba19a08ca5db297a5d2854
     Pseudo is Ultrasoft + core correction, Zval = 13.0
     Generated by new atomic code, or converted to UPF format
     Using radial grid of  887 points,  6 beta functions with:
                l(1) =   0
                l(2) =   0
                l(3) =   1
                l(4) =   1
                l(5) =   2
                l(6) =   2
     Q(r) pseudized with  6 coefficients,  rinner =    1.000   1.000   1.000
                                                       1.000   1.000

     PseudoPot. # 2 for Ti read from file:
     ./Ti.pbe-sp-van_ak.UPF
     MD5 check sum: f98fea3e8887528921fefa5636a534ca
     Pseudo is Ultrasoft, Zval = 12.0
     Generated by new atomic code, or converted to UPF format
     Using radial grid of  851 points,  6 beta functions with:
                l(1) =   0
                l(2) =   0
                l(3) =   1
                l(4) =   1
                l(5) =   2
                l(6) =   2
     Q(r) pseudized with  8 coefficients,  rinner =    1.000   1.000   1.000
                                                       1.000   1.000

     atomic species   valence    mass     pseudopotential
        Nb            13.00    92.90638     Nb( 1.00)
        Ti            12.00    47.86700     Ti( 1.00)

      4 Sym. Ops. (no inversion) found

   Cartesian axes

     site n.     atom                  positions (alat units)
         1           Nb  tau(   1) = (  -1.5225021   2.6370512   4.9724614  )
         2           Ti  tau(   2) = (  -1.5225006   0.8790162   2.4862307  )
         3           Ti  tau(   3) = (   1.5225021   2.6370512   4.9724614  )
         4           Nb  tau(   4) = (  -6.0900069  -1.7580350   2.4862307  )
         5           Nb  tau(   5) = (  -3.0450042   0.0000000   4.9724614  )
         6           Nb  tau(   6) = (   3.0450058   3.5160674   2.4862307  )

     number of k points=   248  Marzari-Vanderbilt smearing, width (Ry)=  0.0200

     Number of k-points >= 100: set verbosity='high' to print them.

     Initial potential from superposition of free atoms

     starting charge   73.98898, renormalised to   76.00000
     Starting wfc are   72 randomized atomic wfcs

     Self-consistent Calculation

     iteration #  1     ecut=    40.00 Ry     beta=0.60
     Davidson diagonalization with overlap
     ethr =  1.00E-02,  avg # of iterations =  2.3

     total energy              =    -678.58519408 Ry
     Harris-Foulkes estimate   =    -707.76302276 Ry
     estimated scf accuracy    <      36.65114011 Ry

[...]

     iteration # 20     ecut=    40.00 Ry     beta=0.60
     Davidson diagonalization with overlap
     c_bands:  1 eigenvalues not converged
     ethr =  1.97E-06,  avg # of iterations =  6.1

[...]

     End of self-consistent calculation

     Number of k-points >= 100: set verbosity='high' to print the bands.

     the Fermi energy is    14.6534 ev

!    total energy              =    -704.90394261 Ry
     Harris-Foulkes estimate   =    -704.90394261 Ry
     estimated scf accuracy    <          1.2E-11 Ry

     The total energy is the sum of the following terms:

     one-electron contribution =    -177.49955630 Ry
     hartree contribution      =     117.46305195 Ry
     xc contribution           =    -102.15596197 Ry
     ewald contribution        =    -542.70690494 Ry
     smearing contrib. (-TS)   =      -0.00457135 Ry

     convergence has been achieved in  33 iterations

     Forces acting on atoms (Ry/au):

     atom    1 type  1   force =    -0.00107000   -0.00061776    0.00000000
     atom    2 type  2   force =     0.00127024    0.00073337    0.00000000
     atom    3 type  2   force =    -0.00126578   -0.00073080    0.00000000
     atom    4 type  1   force =     0.00106957    0.00061752    0.00000000
     atom    5 type  1   force =     0.00262200    0.00151381    0.00000000
     atom    6 type  1   force =    -0.00262604   -0.00151614    0.00000000

     Total force =     0.005070     Total SCF correction =     0.000012

     entering subroutine stress ...

          total   stress  (Ry/bohr**3)                   (kbar)     P= -119.20
  -0.00089367   0.00002774   0.00000000       -131.46      4.08      0.00
   0.00002774  -0.00092569   0.00000000          4.08   -136.17      0.00
   0.00000000   0.00000000  -0.00061146          0.00      0.00    -89.95

     BFGS Geometry Optimization

     number of scf cycles    =   1
     number of bfgs steps    =   0

     enthalpy new            =    -704.9039426057 Ry

     new trust radius        =       0.1316527186 bohr
     new conv_thr            =            1.0E-10 Ry

     new unit-cell volume =    760.19253 a.u.^3 (   112.64891 Ang^3 )

CELL_PARAMETERS (alat=  1.88972599)
   5.957604447   5.156269935   0.000000000
  -7.444262655  -2.581302200   0.000000000
   0.000000000   0.000000000   4.896449154

ATOMIC_POSITIONS (angstrom)
Nb      -1.487212004   2.574648001   4.896449154
Ti      -1.487218353   0.857997461   2.448224577
Ti       1.489660290   2.576700988   4.896449154
Nb      -5.954611246  -1.721253213   2.448224577
Nb      -2.975616564  -0.001327991   4.896449154
Nb       2.978054098   3.436023899   2.448224577

     NEW-OLD atomic charge density approx. for the potential

     Check: negative/imaginary core charge=   -0.000001    0.000000
     extrapolated charge   71.31357, renormalised to   76.00000

[...]

     enthalpy old            =    -704.9039426057 Ry
     enthalpy new            =    -704.9333260047 Ry

     CASE: enthalpy_new < enthalpy_old

[...]

     WARNING: bfgs curvature condition failed, Theta= 0.892
     new trust radius        =       0.0511254851 bohr
     new conv_thr            =            1.0E-10 Ry

[...]

     NEW-OLD atomic charge density approx. for the potential
     extrapolated charge   76.24436, renormalised to   76.00000

[...]

     WARNING: bfgs curvature condition failed, Theta= 0.793
     new trust radius        =       0.0231731809 bohr
     new conv_thr            =            1.0E-10 Ry

[...]

     NEW-OLD atomic charge density approx. for the potential

     Check: negative/imaginary core charge=   -0.000001    0.000000
     extrapolated charge   75.81152, renormalised to   76.00000

[...]

     Threshold (ethr) on eigenvalues was too large:
     Diagonalizing with lowered threshold

     Davidson diagonalization with overlap
     ethr =  5.03E-08,  avg # of iterations =  2.1

[...]

     Total force =     0.000120     Total SCF correction =     0.000021
     SCF correction compared to forces is large: reduce conv_thr to get better values

[...]

     small trust_radius: resetting bfgs history

[...]

     number of scf cycles    =  37
     number of bfgs steps    =  36

     enthalpy old            =    -704.9744006504 Ry
     enthalpy new            =    -704.9744006507 Ry

     CASE: enthalpy_new < enthalpy_old

     Message from routine bfgs:
     history already reset at previous step: stopping
     small trust_radius: resetting bfgs history

     new trust radius        =       0.0000052046 bohr
     new conv_thr            =            1.0E-12 Ry

     new unit-cell volume =    729.35887 a.u.^3 (   108.07983 Ang^3 )

[...]

ATOMIC_POSITIONS (angstrom)
Nb      -1.177377781   2.452584479   4.880075953
Ti      -1.609099656   0.637156246   2.440037976
Ti       1.823989722   2.619252913   4.880075953
Nb      -6.356415861  -2.103708101   2.440037976
Nb      -2.862775556  -0.086652344   4.880075953
Nb       3.077651493   3.343053345   2.440037976

     NEW-OLD atomic charge density approx. for the potential
     extrapolated charge   76.00003, renormalised to   76.00000

[...]

     Threshold (ethr) on eigenvalues was too large:
     Diagonalizing with lowered threshold

     Davidson diagonalization with overlap
     ethr =  5.43E-13,  avg # of iterations =  3.3

[...]

     Total force =     0.000007     Total SCF correction =     0.000001
     SCF correction compared to forces is large: reduce conv_thr to get better values

[...]

     bfgs converged in  38 scf cycles and  37 bfgs steps
     (criteria: energy <  1.0E-10, force <  1.0E-05, cell <  1.0E-03)

     End of BFGS Geometry Optimization

     Final enthalpy =    -704.9744006507 Ry
Begin final coordinates
     new unit-cell volume =    729.35887 a.u.^3 (   108.07983 Ang^3 )

CELL_PARAMETERS (alat=  1.88972599)
   6.392305201   5.256771153   0.000000000
  -7.748649828  -2.907513221   0.000000000
   0.000000000   0.000000000   4.880075953

ATOMIC_POSITIONS (angstrom)
Nb      -1.177377781   2.452584479   4.880075953
Ti      -1.609099656   0.637156246   2.440037976
Ti       1.823989722   2.619252913   4.880075953
Nb      -6.356415861  -2.103708101   2.440037976
Nb      -2.862775556  -0.086652344   4.880075953
Nb       3.077651493   3.343053345   2.440037976
End final coordinates

     A final scf calculation at the relaxed structure.
     The G-vectors are recalculated for the final unit cell
     Results may differ from those at the preceding step.

   Info: using nr1, nr2, nr3 values from input

   Info: using nr1, nr2, nr3 values from input

     bravais-lattice index     =            0
     lattice parameter (alat)  =       1.8897  a.u.
     unit-cell volume          =     729.3589 (a.u.)^3
     number of atoms/cell      =            6
     number of atomic types    =            2
     number of electrons       =        76.00
     number of Kohn-Sham states=           46
     kinetic-energy cutoff     =      40.0000  Ry
     charge density cutoff     =     400.0000  Ry
     convergence threshold     =      1.0E-12
     mixing beta               =       0.6000
     number of iterations used =            8  plain     mixing
     Exchange-correlation      = SLA  PW   PBE  PBE ( 1  4  3  4 0 0)

     celldm(1)=   1.889726  celldm(2)=   0.000000  celldm(3)=   0.000000
     celldm(4)=   0.000000  celldm(5)=   0.000000  celldm(6)=   0.000000

     crystal axes: (cart. coord. in units of alat)
               a(1) = (   6.392305   5.256771   0.000000 )
               a(2) = (  -7.748650  -2.907513   0.000000 )
               a(3) = (   0.000000   0.000000   4.880076 )

     reciprocal axes: (cart. coord. in units 2 pi/alat)
               b(1) = ( -0.131281  0.349871  0.000000 )
               b(2) = ( -0.237356  0.288629  0.000000 )
               b(3) = (  0.000000 -0.000000  0.204915 )

     PseudoPot. # 1 for Nb read from file:
     ./Nb.pbe-nsp-van.UPF
     MD5 check sum: 0a22fc7fb0ba19a08ca5db297a5d2854
     Pseudo is Ultrasoft + core correction, Zval = 13.0
     Generated by new atomic code, or converted to UPF format
     Using radial grid of  887 points,  6 beta functions with:
                l(1) =   0
                l(2) =   0
                l(3) =   1
                l(4) =   1
                l(5) =   2
                l(6) =   2
     Q(r) pseudized with  6 coefficients,  rinner =    1.000   1.000   1.000
                                                       1.000   1.000

     PseudoPot. # 2 for Ti read from file:
     ./Ti.pbe-sp-van_ak.UPF
     MD5 check sum: f98fea3e8887528921fefa5636a534ca
     Pseudo is Ultrasoft, Zval = 12.0
     Generated by new atomic code, or converted to UPF format
     Using radial grid of  851 points,  6 beta functions with:
                l(1) =   0
                l(2) =   0
                l(3) =   1
                l(4) =   1
                l(5) =   2
                l(6) =   2
     Q(r) pseudized with  8 coefficients,  rinner =    1.000   1.000   1.000
                                                       1.000   1.000

     atomic species   valence    mass     pseudopotential
        Nb            13.00    92.90638     Nb( 1.00)
        Ti            12.00    47.86700     Ti( 1.00)

      4 Sym. Ops. (no inversion) found

   Cartesian axes

     site n.     atom                  positions (alat units)
         1           Nb  tau(   1) = (  -1.1773779   2.4525847   4.8800763  )
         2           Ti  tau(   2) = (  -1.6090998   0.6371563   2.4400382  )
         3           Ti  tau(   3) = (   1.8239899   2.6192531   4.8800763  )
         4           Nb  tau(   4) = (  -6.3564163  -2.1037083   2.4400382  )
         5           Nb  tau(   5) = (  -2.8627758  -0.0866524   4.8800763  )
         6           Nb  tau(   6) = (   3.0776517   3.3430536   2.4400382  )

     number of k points=   248  Marzari-Vanderbilt smearing, width (Ry)=  0.0200

     Number of k-points >= 100: set verbosity='high' to print them.

     Check: negative/imaginary core charge=   -0.000001    0.000000

     Initial potential from superposition of free atoms

     starting charge   73.98898, renormalised to   76.00000
     Starting wfc are   72 randomized atomic wfcs

     Self-consistent Calculation

[...]

     iteration # 23     ecut=    40.00 Ry     beta=0.60
     Davidson diagonalization with overlap
     c_bands:  2 eigenvalues not converged
     c_bands:  1 eigenvalues not converged
     ethr =  3.61E-06,  avg # of iterations =  6.6

[...]

     total energy              =    -704.97225440 Ry
     Harris-Foulkes estimate   =    -704.97225440 Ry
     estimated scf accuracy    <          1.1E-12 Ry

     iteration # 39     ecut=    40.00 Ry     beta=0.60
     Davidson diagonalization with overlap
     ethr =  1.00E-13,  avg # of iterations =  1.0

     End of self-consistent calculation

     Number of k-points >= 100: set verbosity='high' to print the bands.

     the Fermi energy is    16.3714 ev

!    total energy              =    -704.97225440 Ry
     Harris-Foulkes estimate   =    -704.97225440 Ry
     estimated scf accuracy    <          1.0E-13 Ry

     The total energy is the sum of the following terms:

     one-electron contribution =    -151.81438591 Ry
     hartree contribution      =     110.34606213 Ry
     xc contribution           =    -102.78176472 Ry
     ewald contribution        =    -560.72120497 Ry
     smearing contrib. (-TS)   =      -0.00096094 Ry

     convergence has been achieved in  39 iterations

     Forces acting on atoms (Ry/au):

     atom    1 type  1   force =     0.00001256    0.00000725    0.00000000
     atom    2 type  2   force =    -0.00009397   -0.00005425    0.00000000
     atom    3 type  2   force =     0.00007934    0.00004581    0.00000000
     atom    4 type  1   force =    -0.00000786   -0.00000454    0.00000000
     atom    5 type  1   force =     0.00000683    0.00000394    0.00000000
     atom    6 type  1   force =     0.00000310    0.00000179    0.00000000

     Total force =     0.000143     Total SCF correction =     0.000001

     entering subroutine stress ...

          total   stress  (Ry/bohr**3)                   (kbar)     P=   -1.21
  -0.00000357   0.00000915   0.00000000         -0.53      1.35      0.00
   0.00000915  -0.00001414   0.00000000          1.35     -2.08      0.00
   0.00000000   0.00000000  -0.00000706          0.00      0.00     -1.04

     General routines

     Parallel routines

   This run was terminated on:  23:52:33   2May2018

   JOB DONE.