     Program PWSCF v.6.3MaX starts on 31Mar2020 at 16:57:24

     R & G space division:  proc/nbgrp/npool/nimage =       4
     Waiting for input...
     Reading input from standard input

     Current dimensions of program PWSCF are:
     Max number of different atomic species (ntypx) = 10
     Max number of k-points (npk) =  40000
     Max angular momentum in pseudopotentials (lmaxx) =  3
     Message from routine iosys:
     minimal I/O required, wf_collect reset to FALSE

     Subspace diagonalization in iterative solution of the eigenvalue problem:
     a serial algorithm will be used

     bravais-lattice index     =            0
     lattice parameter (alat)  =       1.8897  a.u.
     unit-cell volume          =    1077.7903 (a.u.)^3
     number of atoms/cell      =            8
     number of atomic types    =            2
     number of electrons       =       100.00
     number of Kohn-Sham states=           60
     kinetic-energy cutoff     =      40.0000  Ry
     charge density cutoff     =     400.0000  Ry
     convergence threshold     =      1.0E-10
     mixing beta               =       0.6000
     number of iterations used =            8  plain     mixing
     Exchange-correlation      = SLA PW PBE PBE ( 1  4  3  4 0 0)
     nstep                     =           50

     celldm(1)=   1.889726  celldm(2)=   0.000000  celldm(3)=   0.000000
     celldm(4)=   0.000000  celldm(5)=   0.000000  celldm(6)=   0.000000

     crystal axes: (cart. coord. in units of alat)
               a(1) = (  -1.522502   2.637051   4.972461 )
               a(2) = (  -1.522502   2.637051  -4.972461 )
               a(3) = (  -4.567506  -2.637051   0.000000 )

     reciprocal axes: (cart. coord. in units 2 pi/alat)
               b(1) = ( -0.082102  0.142204  0.100554 )
               b(2) = ( -0.082102  0.142204 -0.100554 )
               b(3) = ( -0.164203 -0.094803  0.000000 )

     PseudoPot. # 1 for Nb read from file:
     ./Nb.pbe-nsp-van.UPF
     MD5 check sum: 0a22fc7fb0ba19a08ca5db297a5d2854
     Pseudo is Ultrasoft + core correction, Zval = 13.0
     Generated by new atomic code, or converted to UPF format
     Using radial grid of  887 points,  6 beta functions with:
                l(1) =   0
                l(2) =   0
                l(3) =   1
                l(4) =   1
                l(5) =   2
                l(6) =   2
     Q(r) pseudized with  6 coefficients,  rinner =    1.000   1.000   1.000
                                                       1.000   1.000

     PseudoPot. # 2 for Ti read from file:
     ./Ti.pbe-sp-van_ak.UPF
     MD5 check sum: f98fea3e8887528921fefa5636a534ca
     Pseudo is Ultrasoft, Zval = 12.0
     Generated by new atomic code, or converted to UPF format
     Using radial grid of  851 points,  6 beta functions with:
                l(1) =   0
                l(2) =   0
                l(3) =   1
                l(4) =   1
                l(5) =   2
                l(6) =   2
     Q(r) pseudized with  8 coefficients,  rinner =    1.000   1.000   1.000
                                                       1.000   1.000

     atomic species   valence    mass     pseudopotential
        Nb            13.00    92.90638     Nb( 1.00)
        Ti            12.00    47.86700     Ti( 1.00)

      2 Sym. Ops. (no inversion) found ( 1 have fractional translation)
          (note:  2 additional sym.ops. were found but ignored
           their fractional translations are incommensurate with FFT grid)

   Cartesian axes

     site n.     atom                  positions (alat units)
         1           Nb  tau(   1) = (  -7.6125106   2.6370512   0.0000000  )
         2           Ti  tau(   2) = (  -3.0450027   3.5160674  -2.4862307  )
         3           Ti  tau(   3) = (  -4.5675063   2.6370512   0.0000000  )
         4           Ti  tau(   4) = (  -4.5675048   0.8790162  -2.4862307  )
         5           Ti  tau(   5) = (  -6.0900085   0.0000000   0.0000000  )
         6           Nb  tau(   6) = (  -3.0450027   3.5160674   2.4862307  )
         7           Nb  tau(   7) = (  -3.0450042   0.0000000   0.0000000  )
         8           Nb  tau(   8) = (  -4.5675048   0.8790162   2.4862307  )

     number of k points=   306  Marzari-Vanderbilt smearing, width (Ry)=  0.0200

     Number of k-points >= 100: set verbosity='high' to print them.

     Initial potential from superposition of free atoms

     starting charge   95.98889, renormalised to  100.00000
     Starting wfcs are   92 randomized atomic wfcs

     Self-consistent Calculation

     iteration #  1     ecut=    40.00 Ry     beta= 0.60
     Davidson diagonalization with overlap
     ethr =  1.00E-02,  avg # of iterations =  3.1

     total energy              =    -918.19770576 Ry
     Harris-Foulkes estimate   =    -941.87961412 Ry
     estimated scf accuracy    <      29.89237056 Ry

[...]

     iteration # 18     ecut=    40.00 Ry     beta= 0.60
     Davidson diagonalization with overlap
     c_bands:  1 eigenvalues not converged
     ethr =  3.64E-07,  avg # of iterations =  4.2

[...]

     End of self-consistent calculation

     Number of k-points >= 100: set verbosity='high' to print the bands.

     the Fermi energy is    13.8325 ev

!    total energy              =    -938.18975272 Ry
     Harris-Foulkes estimate   =    -938.18975272 Ry
     estimated scf accuracy    <          1.8E-12 Ry

     The total energy is the sum of the following terms:

     one-electron contribution =    -272.61239509 Ry
     hartree contribution      =     170.14559326 Ry
     xc contribution           =    -130.99423385 Ry
     ewald contribution        =    -704.72082665 Ry
     smearing contrib. (-TS)   =      -0.00789038 Ry

     convergence has been achieved in  29 iterations

     Forces acting on atoms (cartesian axes, Ry/au):

     atom    1 type  1   force =    -0.00115251   -0.00180210    0.00644705
     atom    2 type  2   force =    -0.00009409   -0.00110701    0.00348201
     atom    3 type  2   force =     0.00102551   -0.00045664   -0.00348082
     atom    4 type  2   force =    -0.00100574    0.00047202    0.00348201
     atom    5 type  2   force =     0.00011729    0.00111644   -0.00348082
     atom    6 type  1   force =     0.00113085    0.00178999   -0.00644824
     atom    7 type  1   force =    -0.00213692   -0.00009705    0.00644705
     atom    8 type  1   force =     0.00211560    0.00008435   -0.00644824

     Total force =     0.015423     Total SCF correction =     0.000004

     Computing stress (Cartesian axis) and pressure

          total   stress  (Ry/bohr**3)                   (kbar)     P= -125.53
  -0.00092399  -0.00002166   0.00000620       -135.92     -3.19      0.91
  -0.00002166  -0.00089897   0.00000358         -3.19   -132.24      0.53
   0.00000620   0.00000358  -0.00073701          0.91      0.53   -108.42

     BFGS Geometry Optimization

     number of scf cycles    =   1
     number of bfgs steps    =   0

     enthalpy new            =    -938.1897527213 Ry

     new trust radius        =       0.1517159643 bohr
     new conv_thr            =            1.0E-10 Ry

     new unit-cell volume =   1010.26671 a.u.^3 (   149.70608 Ang^3 )
     density =      6.24583 g/cm^3

CELL_PARAMETERS (alat=  1.88972599)
  -1.487990506   2.579054782   4.880842608
  -1.489531546   2.578165063  -4.880842608
  -4.460570037  -2.575311497  -0.000943692

ATOMIC_POSITIONS (angstrom)
Nb      -7.438686835   2.580976784   0.002404902
Ti      -2.977001688   3.437900564  -2.438769998
Ti      -4.462896569   2.580022462  -0.002279813
Ti      -4.463377928   0.861756922  -2.439241844
Ti      -5.949271034   0.003875745  -0.002751659
Nb      -2.975599576   3.439843177   2.436914808
Nb      -2.975769662   0.001599929   0.002876748
Nb      -4.460994520   0.861999880   2.436442962

     NEW-OLD atomic charge density approx. for the potential

     Check: negative/imaginary core charge=   -0.000001    0.000000
     extrapolated charge   93.58435, renormalised to  100.00000

[...]

     enthalpy old            =    -938.1897527213 Ry
     enthalpy new            =    -938.2334652319 Ry

     CASE: enthalpy_new < enthalpy_old

[...]

     NEW-OLD atomic charge density approx. for the potential

     Check: negative/imaginary core charge=   -0.000001    0.000000
     extrapolated charge  100.06987, renormalised to  100.00000

[...]

     NEW-OLD atomic charge density approx. for the potential
     extrapolated charge   99.89326, renormalised to  100.00000

[...]

     Threshold (ethr) on eigenvalues was too large:
     Diagonalizing with lowered threshold

     Davidson diagonalization with overlap
     ethr =  4.35E-08,  avg # of iterations =  2.1

[...]

     WARNING: bfgs curvature condition failed, Theta= 0.860
     new trust radius        =       0.0077287502 bohr
     new conv_thr            =            1.0E-10 Ry

[...]

     WARNING: bfgs curvature condition failed, Theta= 0.067
     new trust radius        =       0.0581028274 bohr
     new conv_thr            =            1.0E-10 Ry

[...]

     CASE: enthalpy_new > enthalpy_old

[...]

     iteration #  1     ecut=    40.00 Ry     beta= 0.60
     Davidson diagonalization with overlap
     c_bands:  1 eigenvalues not converged
     c_bands:  1 eigenvalues not converged
     c_bands:  1 eigenvalues not converged
     c_bands:  1 eigenvalues not converged
     c_bands:  1 eigenvalues not converged
     c_bands:  1 eigenvalues not converged
     c_bands:  1 eigenvalues not converged
     ethr =  1.00E-06,  avg # of iterations = 10.7

[...]

     Self-consistent Calculation

[...]

     Threshold (ethr) on eigenvalues was too large:
     Diagonalizing with lowered threshold

     Davidson diagonalization with overlap
     ethr =  2.82E-10,  avg # of iterations =  2.1

[...]

     total energy              =    -938.32427719 Ry
     Harris-Foulkes estimate   =    -938.32427719 Ry
     estimated scf accuracy    <          4.4E-12 Ry

     iteration # 14     ecut=    40.00 Ry     beta= 0.60
     Davidson diagonalization with overlap
     ethr =  1.00E-13,  avg # of iterations =  1.0

     End of self-consistent calculation

     Number of k-points >= 100: set verbosity='high' to print the bands.

     the Fermi energy is    15.7518 ev

!    total energy              =    -938.32427719 Ry
     Harris-Foulkes estimate   =    -938.32427719 Ry
     estimated scf accuracy    <          5.8E-13 Ry

     The total energy is the sum of the following terms:

     one-electron contribution =    -227.91339675 Ry
     hartree contribution      =     157.07525296 Ry
     xc contribution           =    -131.95925532 Ry
     ewald contribution        =    -735.52696215 Ry
     smearing contrib. (-TS)   =       0.00008406 Ry

     convergence has been achieved in  14 iterations

     Forces acting on atoms (cartesian axes, Ry/au):

     atom    1 type  1   force =    -0.00001417   -0.00001109   -0.00001300
     atom    2 type  2   force =     0.00002735    0.00002295   -0.00000426
     atom    3 type  2   force =     0.00000349    0.00000982   -0.00000148
     atom    4 type  2   force =     0.00003355    0.00001221   -0.00000426
     atom    5 type  2   force =     0.00001025   -0.00000189   -0.00000148
     atom    6 type  1   force =    -0.00002450   -0.00000811    0.00001874
     atom    7 type  1   force =    -0.00001669   -0.00000673   -0.00001300
     atom    8 type  1   force =    -0.00001927   -0.00001716    0.00001874

     Total force =     0.000076     Total SCF correction =     0.000002

     Computing stress (Cartesian axis) and pressure

          total   stress  (Ry/bohr**3)                   (kbar)     P=   -0.03
  -0.00000016   0.00000014   0.00000012         -0.02      0.02      0.02
   0.00000014  -0.00000033   0.00000007          0.02     -0.05      0.01
   0.00000012   0.00000007  -0.00000017          0.02      0.01     -0.03

     number of scf cycles    =  50
     number of bfgs steps    =  48

     enthalpy old            =    -938.3242771766 Ry
     enthalpy new            =    -938.3242771906 Ry

     CASE: enthalpy_new < enthalpy_old

     new trust radius        =       0.0001291517 bohr
     new conv_thr            =            3.4E-12 Ry

     new unit-cell volume =    946.30018 a.u.^3 (   140.22722 Ang^3 )
     density =      6.66803 g/cm^3

CELL_PARAMETERS (alat=  1.88972599)
  -1.676500703   2.833843818   4.652032852
  -1.615930288   2.868814215  -4.652032875
  -3.964141378  -2.288698261  -0.034262743

ATOMIC_POSITIONS (angstrom)
Nb      -7.614942530   3.270967180   0.032686981
Ti      -2.818355720   4.152149439  -2.262445999
Ti      -4.814528558   2.999680217  -0.086384778
Ti      -3.910918893   1.467128036  -2.279577365
Ti      -5.907074554   0.314629063  -0.103516143
Nb      -2.786580815   4.029931078   2.253328705
Nb      -3.108198748   0.042454039   0.049818370
Nb      -4.000875630   1.555755050   2.236197339

     NEW-OLD atomic charge density approx. for the potential
     extrapolated charge  100.00057, renormalised to  100.00000

     General routines

     Parallel routines

      59h

   This run was terminated on:   8:57:10   1Apr2020

   JOB DONE.