     Program PWSCF v.6.0 (svn rev. 13079) starts on 10May2018 at 16:23: 0

     Current dimensions of program PWSCF are:
     Max number of different atomic species (ntypx) = 10
     Max number of k-points (npk) =  40000
     Max angular momentum in pseudopotentials (lmaxx) =  3

     Subspace diagonalization in iterative solution of the eigenvalue problem:
     a serial algorithm will be used

     bravais-lattice index     =            0
     lattice parameter (alat)  =       1.8897  a.u.
     unit-cell volume          =     808.3427 (a.u.)^3
     number of atoms/cell      =            6
     number of atomic types    =            2
     number of electrons       =        74.00
     number of Kohn-Sham states=           44
     kinetic-energy cutoff     =      40.0000  Ry
     charge density cutoff     =     400.0000  Ry
     convergence threshold     =      1.0E-10
     mixing beta               =       0.6000
     number of iterations used =            8  plain     mixing
     Exchange-correlation      = SLA  PW   PBE  PBE ( 1  4  3  4 0 0)
     nstep                     =           50

     celldm(1)=   1.889726  celldm(2)=   0.000000  celldm(3)=   0.000000
     celldm(4)=   0.000000  celldm(5)=   0.000000  celldm(6)=   0.000000

     crystal axes: (cart. coord. in units of alat)
               a(1) = (   6.090008   5.274102   0.000000 )
               a(2) = (  -7.612510  -2.637051   0.000000 )
               a(3) = (   0.000000   0.000000   4.972461 )

     reciprocal axes: (cart. coord. in units 2 pi/alat)
               b(1) = ( -0.109469  0.316010  0.000000 )
               b(2) = ( -0.218938  0.252808  0.000000 )
               b(3) = (  0.000000 -0.000000  0.201108 )

     PseudoPot. # 1 for Nb read from file:
     ./Nb.pbe-nsp-van.UPF
     MD5 check sum: 0a22fc7fb0ba19a08ca5db297a5d2854
     Pseudo is Ultrasoft + core correction, Zval = 13.0
     Generated by new atomic code, or converted to UPF format
     Using radial grid of  887 points,  6 beta functions with:
                l(1) =   0
                l(2) =   0
                l(3) =   1
                l(4) =   1
                l(5) =   2
                l(6) =   2
     Q(r) pseudized with  6 coefficients,  rinner =    1.000   1.000   1.000
                                                       1.000   1.000

     PseudoPot. # 2 for Ti read from file:
     ./Ti.pbe-sp-van_ak.UPF
     MD5 check sum: f98fea3e8887528921fefa5636a534ca
     Pseudo is Ultrasoft, Zval = 12.0
     Generated by new atomic code, or converted to UPF format
     Using radial grid of  851 points,  6 beta functions with:
                l(1) =   0
                l(2) =   0
                l(3) =   1
                l(4) =   1
                l(5) =   2
                l(6) =   2
     Q(r) pseudized with  8 coefficients,  rinner =    1.000   1.000   1.000
                                                       1.000   1.000

     atomic species   valence    mass     pseudopotential
        Nb            13.00    92.90638     Nb( 1.00)
        Ti            12.00    47.86700     Ti( 1.00)

      4 Sym. Ops. (no inversion) found

   Cartesian axes

     site n.     atom                  positions (alat units)
         1           Ti  tau(   1) = (  -1.5225021   2.6370512   4.9724614  )
         2           Ti  tau(   2) = (  -1.5225006   0.8790162   2.4862307  )
         3           Nb  tau(   3) = (   1.5225021   2.6370512   4.9724614  )
         4           Ti  tau(   4) = (  -6.0900069  -1.7580350   2.4862307  )
         5           Ti  tau(   5) = (  -3.0450042   0.0000000   4.9724614  )
         6           Nb  tau(   6) = (   3.0450058   3.5160674   2.4862307  )

     number of k points=   248  Marzari-Vanderbilt smearing, width (Ry)=  0.0200

     Number of k-points >= 100: set verbosity='high' to print them.

     Initial potential from superposition of free atoms

     starting charge   69.99436, renormalised to   74.00000
     Starting wfc are   66 randomized atomic wfcs

     Self-consistent Calculation

     iteration #  1     ecut=    40.00 Ry     beta=0.60
     Davidson diagonalization with overlap
     ethr =  1.00E-02,  avg # of iterations =  3.8

     total energy              =    -638.05757748 Ry
     Harris-Foulkes estimate   =    -708.65431316 Ry
     estimated scf accuracy    <      86.54778636 Ry

[...]

     iteration # 24     ecut=    40.00 Ry     beta=0.60
     Davidson diagonalization with overlap
     c_bands:  1 eigenvalues not converged
     c_bands:  1 eigenvalues not converged
     c_bands:  1 eigenvalues not converged
     ethr =  1.72E-05,  avg # of iterations =  5.8

[...]

     End of self-consistent calculation

     Number of k-points >= 100: set verbosity='high' to print the bands.

     the Fermi energy is    12.9910 ev

!    total energy              =    -702.38288274 Ry
     Harris-Foulkes estimate   =    -702.38288274 Ry
     estimated scf accuracy    <          1.4E-11 Ry

     The total energy is the sum of the following terms:

     one-electron contribution =    -231.56630657 Ry
     hartree contribution      =     137.86394731 Ry
     xc contribution           =     -94.33649753 Ry
     ewald contribution        =    -514.33876377 Ry
     smearing contrib. (-TS)   =      -0.00526219 Ry

     convergence has been achieved in  43 iterations

     Forces acting on atoms (Ry/au):

     atom    1 type  2   force =    -0.00009932   -0.00005734    0.00000000
     atom    2 type  2   force =     0.00011650    0.00006726    0.00000000
     atom    3 type  1   force =     0.00069696    0.00040239    0.00000000
     atom    4 type  2   force =    -0.00100253   -0.00057881    0.00000000
     atom    5 type  2   force =     0.00099611    0.00057511    0.00000000
     atom    6 type  1   force =    -0.00070772   -0.00040860    0.00000000

     Total force =     0.002002     Total SCF correction =     0.000009

     entering subroutine stress ...

          total   stress  (Ry/bohr**3)                   (kbar)     P= -129.95
  -0.00086196   0.00004289   0.00000000       -126.80      6.31      0.00
   0.00004289  -0.00091149   0.00000000          6.31   -134.08      0.00
   0.00000000   0.00000000  -0.00087670          0.00      0.00   -128.97

     BFGS Geometry Optimization

     number of scf cycles    =   1
     number of bfgs steps    =   0

     enthalpy new            =    -702.3828827439 Ry

     new trust radius        =       0.1297172511 bohr
     new conv_thr            =            1.0E-10 Ry

     new unit-cell volume =    755.95981 a.u.^3 (   112.02168 Ang^3 )

CELL_PARAMETERS (alat=  1.88972599)
   5.964429424   5.160450296   0.000000000
  -7.451295443  -2.585122623   0.000000000
   0.000000000   0.000000000   4.863476490

ATOMIC_POSITIONS (angstrom)
Ti      -1.486917477   2.575297964   4.863476490
Ti      -1.488689211   0.857388220   2.431738245
Nb       1.492882232   2.578801136   4.863476490
Ti      -5.961177268  -1.724804149   2.431738245
Ti      -2.978871066  -0.002967019   4.863476490
Nb       2.982792048   3.438999314   2.431738245

     NEW-OLD atomic charge density approx. for the potential
     extrapolated charge   69.14986, renormalised to   74.00000

[...]

     enthalpy old            =    -702.3828827439 Ry
     enthalpy new            =    -702.4183134089 Ry

     CASE: enthalpy_new < enthalpy_old

[...]

     Threshold (ethr) on eigenvalues was too large:
     Diagonalizing with lowered threshold

     Davidson diagonalization with overlap
     ethr =  3.01E-08,  avg # of iterations =  1.9

[...]

     Total force =     0.000053     Total SCF correction =     0.000016
     SCF correction compared to forces is large: reduce conv_thr to get better values

[...]

     small trust_radius: resetting bfgs history

[...]

     Total force =     0.000013     Total SCF correction =     0.000003
     SCF correction compared to forces is large: reduce conv_thr to get better values

[...]

     number of scf cycles    =  30
     number of bfgs steps    =  29

     enthalpy old            =    -702.4395969916 Ry
     enthalpy new            =    -702.4395969922 Ry

     CASE: enthalpy_new < enthalpy_old

     Message from routine bfgs:
     history already reset at previous step: stopping
     small trust_radius: resetting bfgs history

     new trust radius        =       0.0000091124 bohr
     new conv_thr            =            1.0E-12 Ry

     new unit-cell volume =    710.89455 a.u.^3 (   105.34370 Ang^3 )

[...]

ATOMIC_POSITIONS (angstrom)
Ti      -1.287100779   2.478122055   4.744734390
Ti      -1.571007732   0.703591646   2.372367195
Nb       1.734314364   2.611921971   4.744734390
Ti      -6.232777663  -1.987882658   2.372367195
Ti      -2.820345171  -0.017712120   4.744734390
Nb       2.997513593   3.341228844   2.372367195

     NEW-OLD atomic charge density approx. for the potential
     extrapolated charge   73.99979, renormalised to   74.00000

[...]

     Threshold (ethr) on eigenvalues was too large:
     Diagonalizing with lowered threshold

     Davidson diagonalization with overlap
     ethr =  4.22E-12,  avg # of iterations =  2.8

[...]

     bfgs converged in  31 scf cycles and  30 bfgs steps
     (criteria: energy <  1.0E-10, force <  1.0E-05, cell <  1.0E-03)

     End of BFGS Geometry Optimization

     Final enthalpy =    -702.4395969926 Ry
Begin final coordinates
     new unit-cell volume =    710.89455 a.u.^3 (   105.34370 Ang^3 )

CELL_PARAMETERS (alat=  1.88972599)
   6.195055517   5.187332262   0.000000000
  -7.589888955  -2.771409683   0.000000000
   0.000000000   0.000000000   4.744734390

ATOMIC_POSITIONS (angstrom)
Ti      -1.287100779   2.478122055   4.744734390
Ti      -1.571007732   0.703591646   2.372367195
Nb       1.734314364   2.611921971   4.744734390
Ti      -6.232777663  -1.987882658   2.372367195
Ti      -2.820345171  -0.017712120   4.744734390
Nb       2.997513593   3.341228844   2.372367195
End final coordinates

     A final scf calculation at the relaxed structure.
     The G-vectors are recalculated for the final unit cell
     Results may differ from those at the preceding step.

   Info: using nr1, nr2, nr3 values from input

   Info: using nr1, nr2, nr3 values from input

     bravais-lattice index     =            0
     lattice parameter (alat)  =       1.8897  a.u.
     unit-cell volume          =     710.8946 (a.u.)^3
     number of atoms/cell      =            6
     number of atomic types    =            2
     number of electrons       =        74.00
     number of Kohn-Sham states=           44
     kinetic-energy cutoff     =      40.0000  Ry
     charge density cutoff     =     400.0000  Ry
     convergence threshold     =      1.0E-12
     mixing beta               =       0.6000
     number of iterations used =            8  plain     mixing
     Exchange-correlation      = SLA  PW   PBE  PBE ( 1  4  3  4 0 0)

     celldm(1)=   1.889726  celldm(2)=   0.000000  celldm(3)=   0.000000
     celldm(4)=   0.000000  celldm(5)=   0.000000  celldm(6)=   0.000000

     crystal axes: (cart. coord. in units of alat)
               a(1) = (   6.195056   5.187332   0.000000 )
               a(2) = (  -7.589889  -2.771410   0.000000 )
               a(3) = (   0.000000   0.000000   4.744734 )

     reciprocal axes: (cart. coord. in units 2 pi/alat)
               b(1) = ( -0.124826  0.341852  0.000000 )
               b(2) = ( -0.233640  0.279028  0.000000 )
               b(3) = (  0.000000 -0.000000  0.210760 )

     PseudoPot. # 1 for Nb read from file:
     ./Nb.pbe-nsp-van.UPF
     MD5 check sum: 0a22fc7fb0ba19a08ca5db297a5d2854
     Pseudo is Ultrasoft + core correction, Zval = 13.0
     Generated by new atomic code, or converted to UPF format
     Using radial grid of  887 points,  6 beta functions with:
                l(1) =   0
                l(2) =   0
                l(3) =   1
                l(4) =   1
                l(5) =   2
                l(6) =   2
     Q(r) pseudized with  6 coefficients,  rinner =    1.000   1.000   1.000
                                                       1.000   1.000

     PseudoPot. # 2 for Ti read from file:
     ./Ti.pbe-sp-van_ak.UPF
     MD5 check sum: f98fea3e8887528921fefa5636a534ca
     Pseudo is Ultrasoft, Zval = 12.0
     Generated by new atomic code, or converted to UPF format
     Using radial grid of  851 points,  6 beta functions with:
                l(1) =   0
                l(2) =   0
                l(3) =   1
                l(4) =   1
                l(5) =   2
                l(6) =   2
     Q(r) pseudized with  8 coefficients,  rinner =    1.000   1.000   1.000
                                                       1.000   1.000

     atomic species   valence    mass     pseudopotential
        Nb            13.00    92.90638     Nb( 1.00)
        Ti            12.00    47.86700     Ti( 1.00)

      4 Sym. Ops. (no inversion) found

   Cartesian axes

     site n.     atom                  positions (alat units)
         1           Ti  tau(   1) = (  -1.2871009   2.4781222   4.7447348  )
         2           Ti  tau(   2) = (  -1.5710079   0.7035917   2.3723674  )
         3           Nb  tau(   3) = (   1.7343145   2.6119222   4.7447348  )
         4           Ti  tau(   4) = (  -6.2327781  -1.9878828   2.3723674  )
         5           Ti  tau(   5) = (  -2.8203454  -0.0177121   4.7447348  )
         6           Nb  tau(   6) = (   2.9975138   3.3412291   2.3723674  )

     number of k points=   248  Marzari-Vanderbilt smearing, width (Ry)=  0.0200

     Number of k-points >= 100: set verbosity='high' to print them.

     Initial potential from superposition of free atoms

     starting charge   69.99436, renormalised to   74.00000
     Starting wfc are   66 randomized atomic wfcs

     Self-consistent Calculation

[...]

     iteration # 26     ecut=    40.00 Ry     beta=0.60
     Davidson diagonalization with overlap
     c_bands:  1 eigenvalues not converged
     c_bands:  1 eigenvalues not converged
     c_bands:  1 eigenvalues not converged
     c_bands:  1 eigenvalues not converged
     ethr =  5.70E-07,  avg # of iterations =  7.4

[...]

     total energy              =    -702.43498974 Ry
     Harris-Foulkes estimate   =    -702.43498974 Ry
     estimated scf accuracy    <          5.1E-11 Ry

     iteration # 39     ecut=    40.00 Ry     beta=0.60
     Davidson diagonalization with overlap
     ethr =  1.00E-13,  avg # of iterations =  1.2

     End of self-consistent calculation

     Number of k-points >= 100: set verbosity='high' to print the bands.

     the Fermi energy is    14.9819 ev

!    total energy              =    -702.43498974 Ry
     Harris-Foulkes estimate   =    -702.43498974 Ry
     estimated scf accuracy    <          5.9E-13 Ry

     The total energy is the sum of the following terms:

     one-electron contribution =    -198.55877397 Ry
     hartree contribution      =     127.80511738 Ry
     xc contribution           =     -94.98095545 Ry
     ewald contribution        =    -536.70042253 Ry
     smearing contrib. (-TS)   =       0.00004482 Ry

     convergence has been achieved in  39 iterations

     Forces acting on atoms (Ry/au):

     atom    1 type  2   force =    -0.00004613   -0.00002663    0.00000000
     atom    2 type  2   force =     0.00004972    0.00002871    0.00000000
     atom    3 type  1   force =     0.00000539    0.00000311    0.00000000
     atom    4 type  2   force =     0.00009796    0.00005656    0.00000000
     atom    5 type  2   force =    -0.00009818   -0.00005668    0.00000000
     atom    6 type  1   force =    -0.00000877   -0.00000506    0.00000000

     Total force =     0.000179     Total SCF correction =     0.000003

     entering subroutine stress ...

          total   stress  (Ry/bohr**3)                   (kbar)     P=   -4.66
  -0.00002308   0.00001244   0.00000000         -3.40      1.83      0.00
   0.00001244  -0.00003744   0.00000000          1.83     -5.51      0.00
   0.00000000   0.00000000  -0.00003451          0.00      0.00     -5.08

     General routines

     Parallel routines

   This run was terminated on:  12:31:55  11May2018

   JOB DONE.