     Program PWSCF v.6.3MaX starts on 23Feb2020 at 19:50:34

     R & G space division:  proc/nbgrp/npool/nimage =       4
     Waiting for input...
     Reading input from standard input

     Current dimensions of program PWSCF are:
     Max number of different atomic species (ntypx) = 10
     Max number of k-points (npk) =  40000
     Max angular momentum in pseudopotentials (lmaxx) =  3
     Message from routine iosys:
     minimal I/O required, wf_collect reset to FALSE

     Subspace diagonalization in iterative solution of the eigenvalue problem:
     a serial algorithm will be used

     bravais-lattice index     =            0
     lattice parameter (alat)  =       1.8897  a.u.
     unit-cell volume          =     586.6735 (a.u.)^3
     number of atoms/cell      =            4
     number of atomic types    =            2
     number of electrons       =        51.00
     number of Kohn-Sham states=           31
     kinetic-energy cutoff     =      50.0000  Ry
     charge density cutoff     =     500.0000  Ry
     convergence threshold     =      1.0E-10
     mixing beta               =       0.6000
     number of iterations used =            8  plain     mixing
     Exchange-correlation      = SLA PW PBE PBE ( 1  4  3  4 0 0)
     nstep                     =           50

     celldm(1)=   1.889726  celldm(2)=   0.000000  celldm(3)=   0.000000
     celldm(4)=   0.000000  celldm(5)=   0.000000  celldm(6)=   0.000000

     crystal axes: (cart. coord. in units of alat)
               a(1) = (   0.000000  -3.516063   3.516063 )
               a(2) = (   0.000000   3.516063   3.516063 )
               a(3) = (  -3.516063   0.000000   0.000000 )

     reciprocal axes: (cart. coord. in units 2 pi/alat)
               b(1) = (  0.000000 -0.142205  0.142205 )
               b(2) = (  0.000000  0.142205  0.142205 )
               b(3) = ( -0.284409  0.000000  0.000000 )

     PseudoPot. # 1 for Nb read from file:
     ./Nb.pbe-nsp-van.UPF
     MD5 check sum: 0a22fc7fb0ba19a08ca5db297a5d2854
     Pseudo is Ultrasoft + core correction, Zval = 13.0
     Generated by new atomic code, or converted to UPF format
     Using radial grid of  887 points,  6 beta functions with:
                l(1) =   0
                l(2) =   0
                l(3) =   1
                l(4) =   1
                l(5) =   2
                l(6) =   2
     Q(r) pseudized with  6 coefficients,  rinner =    1.000   1.000   1.000
                                                       1.000   1.000

     PseudoPot. # 2 for Ti read from file:
     ./Ti.pbe-sp-van_ak.UPF
     MD5 check sum: f98fea3e8887528921fefa5636a534ca
     Pseudo is Ultrasoft, Zval = 12.0
     Generated by new atomic code, or converted to UPF format
     Using radial grid of  851 points,  6 beta functions with:
                l(1) =   0
                l(2) =   0
                l(3) =   1
                l(4) =   1
                l(5) =   2
                l(6) =   2
     Q(r) pseudized with  8 coefficients,  rinner =    1.000   1.000   1.000
                                                       1.000   1.000

     atomic species   valence    mass     pseudopotential
        Nb            13.00    92.90638     Nb( 1.00)
        Ti            12.00    47.86700     Ti( 1.00)

     16 Sym. Ops., with inversion, found

   Cartesian axes

     site n.     atom                  positions (alat units)
         1           Ti  tau(   1) = (  -3.5160633   0.0000000   3.5160633  )
         2           Nb  tau(   2) = (  -1.7580316  -1.7580316   5.2740949  )
         3           Nb  tau(   3) = (  -3.5160633   0.0000000   7.0321265  )
         4           Nb  tau(   4) = (  -1.7580316   1.7580316   5.2740949  )

     number of k points=   252  Marzari-Vanderbilt smearing, width (Ry)=  0.0200

     Number of k-points >= 100: set verbosity='high' to print them.

     Initial potential from superposition of free atoms

     starting charge   49.99176, renormalised to   51.00000
     Starting wfcs are   49 randomized atomic wfcs

     Self-consistent Calculation

     iteration #  1     ecut=    50.00 Ry     beta= 0.60
     Davidson diagonalization with overlap
     ethr =  1.00E-02,  avg # of iterations =  2.1

     total energy              =    -451.97778190 Ry
     Harris-Foulkes estimate   =    -472.31440277 Ry
     estimated scf accuracy    <      25.48982293 Ry

[...]

     End of self-consistent calculation

     Number of k-points >= 100: set verbosity='high' to print the bands.

     the Fermi energy is    13.2923 ev

!    total energy              =    -470.35508166 Ry
     Harris-Foulkes estimate   =    -470.35508166 Ry
     estimated scf accuracy    <          8.4E-11 Ry

     The total energy is the sum of the following terms:

     one-electron contribution =    -124.21188130 Ry
     hartree contribution      =      79.31729241 Ry
     xc contribution           =     -69.12048624 Ry
     ewald contribution        =    -356.33949537 Ry
     smearing contrib. (-TS)   =      -0.00051116 Ry

     convergence has been achieved in  32 iterations

     Forces acting on atoms (cartesian axes, Ry/au):

     atom    1 type  2   force =     0.00000000    0.00000000    0.00000000
     atom    2 type  1   force =     0.00000000    0.00000000    0.00000000
     atom    3 type  1   force =     0.00000000    0.00000000    0.00000000
     atom    4 type  1   force =     0.00000000    0.00000000    0.00000000

     Total force =     0.000000     Total SCF correction =     0.000000

     Computing stress (Cartesian axis) and pressure

          total   stress  (Ry/bohr**3)                   (kbar)     P= -212.58
  -0.00145487   0.00000000   0.00000000       -214.02      0.00      0.00
   0.00000000  -0.00144020   0.00000000          0.00   -211.86      0.00
   0.00000000   0.00000000  -0.00144020          0.00      0.00   -211.86

     BFGS Geometry Optimization

     number of scf cycles    =   1
     number of bfgs steps    =   0

     enthalpy new            =    -470.3550816551 Ry

     new trust radius        =       0.1761945054 bohr
     new conv_thr            =            1.0E-10 Ry

     new unit-cell volume =    525.35832 a.u.^3 (    77.85007 Ang^3 )
     density =      6.96607 g/cm^3

CELL_PARAMETERS (alat=  1.88972599)
   0.000000000  -3.389467473   3.389467473
   0.000000000   3.389467473   3.389467473
  -3.388177651   0.000000000   0.000000000

ATOMIC_POSITIONS (angstrom)
Ti      -3.388177651   0.000000000   3.389467473
Nb      -1.694088825  -1.694733737   5.084201210
Nb      -3.388177651   0.000000000   6.778934946
Nb      -1.694088825   1.694733737   5.084201210

     NEW-OLD atomic charge density approx. for the potential
     extrapolated charge   45.16541, renormalised to   51.00000

[...]

     iteration #  1     ecut=    50.00 Ry     beta= 0.60
     Davidson diagonalization with overlap
     c_bands:  1 eigenvalues not converged
     c_bands:  1 eigenvalues not converged
     c_bands:  1 eigenvalues not converged
     c_bands:  1 eigenvalues not converged
     c_bands:  2 eigenvalues not converged
     c_bands:  1 eigenvalues not converged
     c_bands:  1 eigenvalues not converged
     ethr =  1.00E-06,  avg # of iterations = 13.2

[...]

     enthalpy old            =    -470.3550816551 Ry
     enthalpy new            =    -470.4258233325 Ry

     CASE: enthalpy_new < enthalpy_old

[...]

     iteration #  2     ecut=    50.00 Ry     beta= 0.60
     Davidson diagonalization with overlap
     c_bands:  1 eigenvalues not converged
     c_bands:  1 eigenvalues not converged
     c_bands:  1 eigenvalues not converged
     c_bands:  1 eigenvalues not converged
     c_bands:  1 eigenvalues not converged
     c_bands:  1 eigenvalues not converged
     ethr =  5.94E-06,  avg # of iterations =  7.4

[...]

     Threshold (ethr) on eigenvalues was too large:
     Diagonalizing with lowered threshold

     Davidson diagonalization with overlap
     ethr =  1.15E-08,  avg # of iterations =  1.6

[...]

     small trust_radius: resetting bfgs history

[...]

     number of scf cycles    =  10
     number of bfgs steps    =   9

     enthalpy old            =    -470.4450627002 Ry
     enthalpy new            =    -470.4450627068 Ry

     CASE: enthalpy_new < enthalpy_old

     Message from routine bfgs:
     history already reset at previous step: stopping
     small trust_radius: resetting bfgs history

     new trust radius        =       0.0000132020 bohr
     new conv_thr            =            1.0E-12 Ry

     new unit-cell volume =    480.29541 a.u.^3 (    71.17244 Ang^3 )
     density =      7.61965 g/cm^3

[...]

ATOMIC_POSITIONS (angstrom)
Ti      -3.281736062   0.000000000   3.292980364
Nb      -1.640868031  -1.646490182   4.939470546
Nb      -3.281736062   0.000000000   6.585960728
Nb      -1.640868031   1.646490182   4.939470546

     NEW-OLD atomic charge density approx. for the potential
     extrapolated charge   51.00042, renormalised to   51.00000

[...]

     Threshold (ethr) on eigenvalues was too large:
     Diagonalizing with lowered threshold

     Davidson diagonalization with overlap
     ethr =  2.40E-11,  avg # of iterations =  1.0

[...]

     bfgs converged in  11 scf cycles and  10 bfgs steps
     (criteria: energy <  1.0E-10 Ry, force <  1.0E-05Ry/Bohr, cell <  1.0E-03kbar)

     End of BFGS Geometry Optimization

     Final enthalpy =    -470.4450627072 Ry
Begin final coordinates
     new unit-cell volume =    480.29541 a.u.^3 (    71.17244 Ang^3 )
     density =      7.61965 g/cm^3

CELL_PARAMETERS (alat=  1.88972599)
   0.000000000  -3.292980364   3.292980364
   0.000000000   3.292980364   3.292980364
  -3.281736062   0.000000000   0.000000000

ATOMIC_POSITIONS (angstrom)
Ti      -3.281736062   0.000000000   3.292980364
Nb      -1.640868031  -1.646490182   4.939470546
Nb      -3.281736062   0.000000000   6.585960728
Nb      -1.640868031   1.646490182   4.939470546
End final coordinates

     A final scf calculation at the relaxed structure.
     The G-vectors are recalculated for the final unit cell
     Results may differ from those at the preceding step.

     bravais-lattice index     =            0
     lattice parameter (alat)  =       1.8897  a.u.
     unit-cell volume          =     480.2954 (a.u.)^3
     number of atoms/cell      =            4
     number of atomic types    =            2
     number of electrons       =        51.00
     number of Kohn-Sham states=           31
     kinetic-energy cutoff     =      50.0000  Ry
     charge density cutoff     =     500.0000  Ry
     convergence threshold     =      1.0E-12
     mixing beta               =       0.6000
     number of iterations used =            8  plain     mixing
     Exchange-correlation      = SLA PW PBE PBE ( 1  4  3  4 0 0)

     celldm(1)=   1.889726  celldm(2)=   0.000000  celldm(3)=   0.000000
     celldm(4)=   0.000000  celldm(5)=   0.000000  celldm(6)=   0.000000

     crystal axes: (cart. coord. in units of alat)
               a(1) = (   0.000000  -3.292980   3.292980 )
               a(2) = (   0.000000   3.292980   3.292980 )
               a(3) = (  -3.281736   0.000000   0.000000 )

     reciprocal axes: (cart. coord. in units 2 pi/alat)
               b(1) = (  0.000000 -0.151838  0.151838 )
               b(2) = (  0.000000  0.151838  0.151838 )
               b(3) = ( -0.304717  0.000000  0.000000 )

     PseudoPot. # 1 for Nb read from file:
     ./Nb.pbe-nsp-van.UPF
     MD5 check sum: 0a22fc7fb0ba19a08ca5db297a5d2854
     Pseudo is Ultrasoft + core correction, Zval = 13.0
     Generated by new atomic code, or converted to UPF format
     Using radial grid of  887 points,  6 beta functions with:
                l(1) =   0
                l(2) =   0
                l(3) =   1
                l(4) =   1
                l(5) =   2
                l(6) =   2
     Q(r) pseudized with  6 coefficients,  rinner =    1.000   1.000   1.000
                                                       1.000   1.000

     PseudoPot. # 2 for Ti read from file:
     ./Ti.pbe-sp-van_ak.UPF
     MD5 check sum: f98fea3e8887528921fefa5636a534ca
     Pseudo is Ultrasoft, Zval = 12.0
     Generated by new atomic code, or converted to UPF format
     Using radial grid of  851 points,  6 beta functions with:
                l(1) =   0
                l(2) =   0
                l(3) =   1
                l(4) =   1
                l(5) =   2
                l(6) =   2
     Q(r) pseudized with  8 coefficients,  rinner =    1.000   1.000   1.000
                                                       1.000   1.000

     atomic species   valence    mass     pseudopotential
        Nb            13.00    92.90638     Nb( 1.00)
        Ti            12.00    47.86700     Ti( 1.00)

     16 Sym. Ops., with inversion, found

   Cartesian axes

     site n.     atom                  positions (alat units)
         1           Ti  tau(   1) = (  -3.2817363   0.0000000   3.2929806  )
         2           Nb  tau(   2) = (  -1.6408682  -1.6464903   4.9394709  )
         3           Nb  tau(   3) = (  -3.2817363   0.0000000   6.5859612  )
         4           Nb  tau(   4) = (  -1.6408682   1.6464903   4.9394709  )

     number of k points=   252  Marzari-Vanderbilt smearing, width (Ry)=  0.0200

     Number of k-points >= 100: set verbosity='high' to print them.

     Initial potential from superposition of free atoms

     starting charge   49.99176, renormalised to   51.00000
     Starting wfcs are   49 randomized atomic wfcs

     Self-consistent Calculation

[...]

     total energy              =    -470.44456012 Ry
     Harris-Foulkes estimate   =    -470.44456012 Ry
     estimated scf accuracy    <          8.3E-12 Ry

     iteration # 29     ecut=    50.00 Ry     beta= 0.60
     Davidson diagonalization with overlap
     ethr =  1.00E-13,  avg # of iterations =  2.0

     End of self-consistent calculation

     Number of k-points >= 100: set verbosity='high' to print the bands.

     the Fermi energy is    16.8767 ev

!    total energy              =    -470.44456012 Ry
     Harris-Foulkes estimate   =    -470.44456012 Ry
     estimated scf accuracy    <          7.4E-13 Ry

     The total energy is the sum of the following terms:

     one-electron contribution =     -88.75309891 Ry
     hartree contribution      =      69.09064715 Ry
     xc contribution           =     -69.86812190 Ry
     ewald contribution        =    -380.91334595 Ry
     smearing contrib. (-TS)   =      -0.00064050 Ry

     convergence has been achieved in  29 iterations

     Forces acting on atoms (cartesian axes, Ry/au):

     atom    1 type  2   force =     0.00000000    0.00000000    0.00000000
     atom    2 type  1   force =     0.00000000    0.00000000    0.00000000
     atom    3 type  1   force =     0.00000000    0.00000000    0.00000000
     atom    4 type  1   force =     0.00000000    0.00000000    0.00000000

     Total force =     0.000000     Total SCF correction =     0.000000

     Computing stress (Cartesian axis) and pressure

          total   stress  (Ry/bohr**3)                   (kbar)     P=   -1.34
  -0.00000912   0.00000000   0.00000000         -1.34      0.00      0.00
   0.00000000  -0.00000910  -0.00000000          0.00     -1.34     -0.00
   0.00000000  -0.00000000  -0.00000910          0.00     -0.00     -1.34

     General routines

     Parallel routines

       2h

   This run was terminated on:  20:53:22  23Feb2020

   JOB DONE.