     Program PWSCF v.6.0 (svn rev. 13079) starts on  4Mar2020 at 13:31:24

     Current dimensions of program PWSCF are:
     Max number of different atomic species (ntypx) = 10
     Max number of k-points (npk) =  40000
     Max angular momentum in pseudopotentials (lmaxx) =  3

     Subspace diagonalization in iterative solution of the eigenvalue problem:
     a serial algorithm will be used

     bravais-lattice index     =            0
     lattice parameter (alat)  =       1.8897  a.u.
     unit-cell volume          =     808.3427 (a.u.)^3
     number of atoms/cell      =            6
     number of atomic types    =            2
     number of electrons       =        76.00
     number of Kohn-Sham states=           46
     kinetic-energy cutoff     =      40.0000  Ry
     charge density cutoff     =     400.0000  Ry
     convergence threshold     =      1.0E-10
     mixing beta               =       0.6000
     number of iterations used =            8  plain     mixing
     Exchange-correlation      = SLA  PW   PBE  PBE ( 1  4  3  4 0 0)
     nstep                     =           50

     celldm(1)=   1.889726  celldm(2)=   0.000000  celldm(3)=   0.000000
     celldm(4)=   0.000000  celldm(5)=   0.000000  celldm(6)=   0.000000

     crystal axes: (cart. coord. in units of alat)
               a(1) = (  -3.045004   0.000000   4.972461 )
               a(2) = (  -1.522502   2.637051   4.972461 )
               a(3) = (  -4.567506   2.637051  -4.972461 )

     reciprocal axes: (cart. coord. in units 2 pi/alat)
               b(1) = ( -0.218938 -0.252808  0.067036 )
               b(2) = (  0.109469  0.316010  0.067036 )
               b(3) = ( -0.109469  0.063202 -0.067036 )

     PseudoPot. # 1 for Nb read from file:
     ./Nb.pbe-nsp-van.UPF
     MD5 check sum: 0a22fc7fb0ba19a08ca5db297a5d2854
     Pseudo is Ultrasoft + core correction, Zval = 13.0
     Generated by new atomic code, or converted to UPF format
     Using radial grid of  887 points,  6 beta functions with:
                l(1) =   0
                l(2) =   0
                l(3) =   1
                l(4) =   1
                l(5) =   2
                l(6) =   2
     Q(r) pseudized with  6 coefficients,  rinner =    1.000   1.000   1.000
                                                       1.000   1.000

     PseudoPot. # 2 for Ti read from file:
     ./Ti.pbe-sp-van_ak.UPF
     MD5 check sum: f98fea3e8887528921fefa5636a534ca
     Pseudo is Ultrasoft, Zval = 12.0
     Generated by new atomic code, or converted to UPF format
     Using radial grid of  851 points,  6 beta functions with:
                l(1) =   0
                l(2) =   0
                l(3) =   1
                l(4) =   1
                l(5) =   2
                l(6) =   2
     Q(r) pseudized with  8 coefficients,  rinner =    1.000   1.000   1.000
                                                       1.000   1.000

     atomic species   valence    mass     pseudopotential
        Nb            13.00    92.90638     Nb( 1.00)
        Ti            12.00    47.86700     Ti( 1.00)

      2 Sym. Ops. (no inversion) found

   Cartesian axes

     site n.     atom                  positions (alat units)
         1           Ti  tau(   1) = (  -4.5675063   2.6370512   0.0000000  )
         2           Ti  tau(   2) = (  -6.0900069   3.5160674   2.4862307  )
         3           Nb  tau(   3) = (  -4.5675063   2.6370512   4.9724614  )
         4           Nb  tau(   4) = (  -6.0900069   3.5160674   7.4586921  )
         5           Nb  tau(   5) = (  -9.1350127   5.2741024   4.9724614  )
         6           Nb  tau(   6) = (  -1.5225006   0.8790162   2.4862307  )

     number of k points=   398  Marzari-Vanderbilt smearing, width (Ry)=  0.0200

     Number of k-points >= 100: set verbosity='high' to print them.

     Initial potential from superposition of free atoms

     starting charge   73.98898, renormalised to   76.00000
     Starting wfc are   72 randomized atomic wfcs

     Self-consistent Calculation

     iteration #  1     ecut=    40.00 Ry     beta=0.60
     Davidson diagonalization with overlap
     ethr =  1.00E-02,  avg # of iterations =  3.1

     total energy              =    -630.42765137 Ry
     Harris-Foulkes estimate   =    -712.11425745 Ry
     estimated scf accuracy    <     100.63755090 Ry

[...]

     End of self-consistent calculation

     Number of k-points >= 100: set verbosity='high' to print the bands.

     the Fermi energy is    14.6595 ev

!    total energy              =    -704.89991797 Ry
     Harris-Foulkes estimate   =    -704.89991797 Ry
     estimated scf accuracy    <          7.4E-11 Ry

     The total energy is the sum of the following terms:

     one-electron contribution =    -177.93673364 Ry
     hartree contribution      =     117.70247181 Ry
     xc contribution           =    -102.16847768 Ry
     ewald contribution        =    -542.49360568 Ry
     smearing contrib. (-TS)   =      -0.00357279 Ry

     convergence has been achieved in  39 iterations

     Forces acting on atoms (Ry/au):

     atom    1 type  2   force =     0.00228162   -0.00131729   -0.00165404
     atom    2 type  2   force =    -0.00228166    0.00131732    0.00165399
     atom    3 type  1   force =    -0.00644262    0.00371965   -0.00647956
     atom    4 type  1   force =    -0.00232156    0.00134035   -0.00945792
     atom    5 type  1   force =     0.00232159   -0.00134037    0.00945801
     atom    6 type  1   force =     0.00644264   -0.00371966    0.00647951

     Total force =     0.020181     Total SCF correction =     0.000022

     entering subroutine stress ...

          total   stress  (Ry/bohr**3)                   (kbar)     P= -117.12
  -0.00087802  -0.00003744   0.00000989       -129.16     -5.51      1.45
  -0.00003744  -0.00092126  -0.00000571         -5.51   -135.52     -0.84
   0.00000989  -0.00000571  -0.00058914          1.45     -0.84    -86.66

     BFGS Geometry Optimization

     number of scf cycles    =   1
     number of bfgs steps    =   0

     enthalpy new            =    -704.8999179680 Ry

     new trust radius        =       0.1310733587 bohr
     new conv_thr            =            1.0E-10 Ry

     new unit-cell volume =    761.01380 a.u.^3 (   112.77061 Ang^3 )

CELL_PARAMETERS (alat=  1.88972599)
  -2.976935462   0.002140677   4.898471969
  -1.490321612   2.577031582   4.898471969
  -4.470944648   2.581301281  -4.900730142

ATOMIC_POSITIONS (angstrom)
Ti      -4.468534144   2.579909576  -0.002367438
Ti      -5.960185859   3.441115157   2.448467048
Nb      -4.471823407   2.581808633   4.894339787
Nb      -5.958978782   3.440418251   7.341898171
Nb      -8.936998257   5.159778720   4.901145449
Nb      -1.485951916   0.857914801   2.452489962

     NEW-OLD atomic charge density approx. for the potential

     Check: negative/imaginary core charge=   -0.000001    0.000000
     extrapolated charge   71.39848, renormalised to   76.00000

[...]

     iteration #  1     ecut=    40.00 Ry     beta=0.60
     Davidson diagonalization with overlap
     c_bands:  1 eigenvalues not converged
     c_bands:  1 eigenvalues not converged
     c_bands:  1 eigenvalues not converged
     c_bands:  1 eigenvalues not converged
     c_bands:  1 eigenvalues not converged
     c_bands:  1 eigenvalues not converged
     c_bands:  1 eigenvalues not converged
     c_bands:  1 eigenvalues not converged
     c_bands:  1 eigenvalues not converged
     c_bands:  1 eigenvalues not converged
     c_bands:  1 eigenvalues not converged
     c_bands:  1 eigenvalues not converged
     c_bands:  1 eigenvalues not converged
     c_bands:  1 eigenvalues not converged
     c_bands:  1 eigenvalues not converged
     c_bands:  1 eigenvalues not converged
     c_bands:  3 eigenvalues not converged
     c_bands:  1 eigenvalues not converged
     c_bands:  1 eigenvalues not converged
     c_bands:  1 eigenvalues not converged
     c_bands:  2 eigenvalues not converged
     c_bands:  1 eigenvalues not converged
     c_bands:  1 eigenvalues not converged
     c_bands:  1 eigenvalues not converged
     c_bands:  1 eigenvalues not converged
     c_bands:  1 eigenvalues not converged
     c_bands:  2 eigenvalues not converged
     c_bands:  1 eigenvalues not converged
     c_bands:  1 eigenvalues not converged
     c_bands:  1 eigenvalues not converged
     c_bands:  1 eigenvalues not converged
     c_bands:  1 eigenvalues not converged
     c_bands:  1 eigenvalues not converged
     c_bands:  1 eigenvalues not converged
     c_bands:  1 eigenvalues not converged
     c_bands:  1 eigenvalues not converged
     c_bands:  1 eigenvalues not converged
     c_bands:  1 eigenvalues not converged
     c_bands:  1 eigenvalues not converged
     c_bands:  1 eigenvalues not converged
     c_bands:  2 eigenvalues not converged
     c_bands:  1 eigenvalues not converged
     c_bands:  1 eigenvalues not converged
     c_bands:  1 eigenvalues not converged
     c_bands:  2 eigenvalues not converged
     c_bands:  1 eigenvalues not converged
     c_bands:  1 eigenvalues not converged
     c_bands:  1 eigenvalues not converged
     c_bands:  1 eigenvalues not converged
     c_bands:  1 eigenvalues not converged
     c_bands:  1 eigenvalues not converged
     c_bands:  1 eigenvalues not converged
     c_bands:  1 eigenvalues not converged
     c_bands:  1 eigenvalues not converged
     c_bands:  1 eigenvalues not converged
     c_bands:  1 eigenvalues not converged
     c_bands:  1 eigenvalues not converged
     c_bands:  1 eigenvalues not converged
     c_bands:  1 eigenvalues not converged
     c_bands:  1 eigenvalues not converged
[...]
     c_bands:  1 eigenvalues not converged
     c_bands:  1 eigenvalues not converged
     c_bands:  1 eigenvalues not converged
     c_bands:  1 eigenvalues not converged
     c_bands:  1 eigenvalues not converged
     c_bands:  1 eigenvalues not converged
     c_bands:  1 eigenvalues not converged
     c_bands:  1 eigenvalues not converged
     c_bands:  1 eigenvalues not converged
     c_bands:  1 eigenvalues not converged
     c_bands:  1 eigenvalues not converged
     c_bands:  1 eigenvalues not converged
     c_bands:  1 eigenvalues not converged
     c_bands:  1 eigenvalues not converged
     c_bands:  1 eigenvalues not converged
     ethr =  1.00E-06,  avg # of iterations = 16.2

[...]

     enthalpy old            =    -704.8999179680 Ry
     enthalpy new            =    -704.9290124770 Ry

     CASE: enthalpy_new < enthalpy_old

[...]

     WARNING: bfgs curvature condition failed, Theta= 0.931
     new trust radius        =       0.0530490360 bohr
     new conv_thr            =            1.0E-10 Ry

[...]

     NEW-OLD atomic charge density approx. for the potential

     Check: negative/imaginary core charge=   -0.000001    0.000000
     extrapolated charge   76.22664, renormalised to   76.00000

[...]

     NEW-OLD atomic charge density approx. for the potential
     extrapolated charge   76.62452, renormalised to   76.00000

[...]

     WARNING: bfgs curvature condition failed, Theta= 0.920
     new trust radius        =       0.0241083847 bohr
     new conv_thr            =            1.0E-10 Ry

[...]

     Threshold (ethr) on eigenvalues was too large:
     Diagonalizing with lowered threshold

     Davidson diagonalization with overlap
     ethr =  6.10E-09,  avg # of iterations =  3.3

[...]

     Total force =     0.000031     Total SCF correction =     0.000007
     SCF correction compared to forces is large: reduce conv_thr to get better values

[...]

     small trust_radius: resetting bfgs history

[...]

     number of scf cycles    =  38
     number of bfgs steps    =  37

     enthalpy old            =    -704.9740488082 Ry
     enthalpy new            =    -704.9740488095 Ry

     CASE: enthalpy_new < enthalpy_old

     Message from routine bfgs:
     history already reset at previous step: stopping
     small trust_radius: resetting bfgs history

     new trust radius        =       0.0000134994 bohr
     new conv_thr            =            1.3E-12 Ry

     new unit-cell volume =    729.01581 a.u.^3 (   108.02900 Ang^3 )

[...]

ATOMIC_POSITIONS (angstrom)
Ti      -4.875691419   2.814981921  -0.078898819
Ti      -6.167549855   3.560836805   2.303854050
Nb      -4.909148396   2.834298318   4.713532370
Nb      -6.147730964   3.549394367   7.110062985
Nb      -9.579195102   5.530551214   4.700357718
Nb      -1.367864191   0.789736825   2.427571772

     NEW-OLD atomic charge density approx. for the potential
     extrapolated charge   76.00005, renormalised to   76.00000

[...]

     Threshold (ethr) on eigenvalues was too large:
     Diagonalizing with lowered threshold

     Davidson diagonalization with overlap
     ethr =  6.65E-13,  avg # of iterations =  4.0

[...]

     bfgs converged in  39 scf cycles and  38 bfgs steps
     (criteria: energy <  1.0E-10, force <  1.0E-05, cell <  1.0E-03)

     End of BFGS Geometry Optimization

     Final enthalpy =    -704.9740488103 Ry
Begin final coordinates
     new unit-cell volume =    729.01581 a.u.^3 (   108.02900 Ang^3 )

CELL_PARAMETERS (alat=  1.88972599)
  -3.022623064   0.172917166   4.792732942
  -1.661062197   2.531209960   4.792732943
  -4.766228791   2.751783643  -4.916149231

ATOMIC_POSITIONS (angstrom)
Ti      -4.875691419   2.814981921  -0.078898819
Ti      -6.167549855   3.560836805   2.303854050
Nb      -4.909148396   2.834298318   4.713532370
Nb      -6.147730964   3.549394367   7.110062985
Nb      -9.579195102   5.530551214   4.700357718
Nb      -1.367864191   0.789736825   2.427571772
End final coordinates

     A final scf calculation at the relaxed structure.
     The G-vectors are recalculated for the final unit cell
     Results may differ from those at the preceding step.

   Info: using nr1, nr2, nr3 values from input

   Info: using nr1, nr2, nr3 values from input

     bravais-lattice index     =            0
     lattice parameter (alat)  =       1.8897  a.u.
     unit-cell volume          =     729.0158 (a.u.)^3
     number of atoms/cell      =            6
     number of atomic types    =            2
     number of electrons       =        76.00
     number of Kohn-Sham states=           46
     kinetic-energy cutoff     =      40.0000  Ry
     charge density cutoff     =     400.0000  Ry
     convergence threshold     =      1.3E-12
     mixing beta               =       0.6000
     number of iterations used =            8  plain     mixing
     Exchange-correlation      = SLA  PW   PBE  PBE ( 1  4  3  4 0 0)

     celldm(1)=   1.889726  celldm(2)=   0.000000  celldm(3)=   0.000000
     celldm(4)=   0.000000  celldm(5)=   0.000000  celldm(6)=   0.000000

     crystal axes: (cart. coord. in units of alat)
               a(1) = (  -3.022623   0.172917   4.792733 )
               a(2) = (  -1.661062   2.531210   4.792733 )
               a(3) = (  -4.766229   2.751784  -4.916149 )

     reciprocal axes: (cart. coord. in units 2 pi/alat)
               b(1) = ( -0.237273 -0.287046  0.069365 )
               b(2) = (  0.129953  0.349007  0.069365 )
               b(3) = ( -0.104626  0.060406 -0.068164 )

     PseudoPot. # 1 for Nb read from file:
     ./Nb.pbe-nsp-van.UPF
     MD5 check sum: 0a22fc7fb0ba19a08ca5db297a5d2854
     Pseudo is Ultrasoft + core correction, Zval = 13.0
     Generated by new atomic code, or converted to UPF format
     Using radial grid of  887 points,  6 beta functions with:
                l(1) =   0
                l(2) =   0
                l(3) =   1
                l(4) =   1
                l(5) =   2
                l(6) =   2
     Q(r) pseudized with  6 coefficients,  rinner =    1.000   1.000   1.000
                                                       1.000   1.000

     PseudoPot. # 2 for Ti read from file:
     ./Ti.pbe-sp-van_ak.UPF
     MD5 check sum: f98fea3e8887528921fefa5636a534ca
     Pseudo is Ultrasoft, Zval = 12.0
     Generated by new atomic code, or converted to UPF format
     Using radial grid of  851 points,  6 beta functions with:
                l(1) =   0
                l(2) =   0
                l(3) =   1
                l(4) =   1
                l(5) =   2
                l(6) =   2
     Q(r) pseudized with  8 coefficients,  rinner =    1.000   1.000   1.000
                                                       1.000   1.000

     atomic species   valence    mass     pseudopotential
        Nb            13.00    92.90638     Nb( 1.00)
        Ti            12.00    47.86700     Ti( 1.00)

      2 Sym. Ops. (no inversion) found

   Cartesian axes

     site n.     atom                  positions (alat units)
         1           Ti  tau(   1) = (  -4.8756918   2.8149821  -0.0788988  )
         2           Ti  tau(   2) = (  -6.1675503   3.5608371   2.3038542  )
         3           Nb  tau(   3) = (  -4.9091488   2.8342985   4.7135327  )
         4           Nb  tau(   4) = (  -6.1477314   3.5493946   7.1100635  )
         5           Nb  tau(   5) = (  -9.5791958   5.5305516   4.7003581  )
         6           Nb  tau(   6) = (  -1.3678643   0.7897369   2.4275720  )

     number of k points=   398  Marzari-Vanderbilt smearing, width (Ry)=  0.0200

     Number of k-points >= 100: set verbosity='high' to print them.

     Initial potential from superposition of free atoms

     starting charge   73.98898, renormalised to   76.00000
     Starting wfc are   72 randomized atomic wfcs

     Self-consistent Calculation

[...]

     iteration # 27     ecut=    40.00 Ry     beta=0.60
     Davidson diagonalization with overlap
     c_bands:  1 eigenvalues not converged
     ethr =  4.02E-07,  avg # of iterations =  4.3

[...]

     total energy              =    -704.97192667 Ry
     Harris-Foulkes estimate   =    -704.97192667 Ry
     estimated scf accuracy    <          1.7E-11 Ry

     iteration # 41     ecut=    40.00 Ry     beta=0.60
     Davidson diagonalization with overlap
     ethr =  1.00E-13,  avg # of iterations =  1.0

     End of self-consistent calculation

     Number of k-points >= 100: set verbosity='high' to print the bands.

     the Fermi energy is    16.3743 ev

!    total energy              =    -704.97192667 Ry
     Harris-Foulkes estimate   =    -704.97192667 Ry
     estimated scf accuracy    <          1.2E-12 Ry

     The total energy is the sum of the following terms:

     one-electron contribution =    -151.66440093 Ry
     hartree contribution      =     110.28346499 Ry
     xc contribution           =    -102.77815416 Ry
     ewald contribution        =    -560.81315452 Ry
     smearing contrib. (-TS)   =       0.00031795 Ry

     convergence has been achieved in  41 iterations

     Forces acting on atoms (Ry/au):

     atom    1 type  2   force =     0.00009513   -0.00005492   -0.00011726
     atom    2 type  2   force =    -0.00009497    0.00005483    0.00011730
     atom    3 type  1   force =    -0.00000015    0.00000008   -0.00003439
     atom    4 type  1   force =    -0.00000624    0.00000360    0.00000646
     atom    5 type  1   force =     0.00000621   -0.00000359   -0.00000657
     atom    6 type  1   force =     0.00000002   -0.00000001    0.00003447

     Total force =     0.000233     Total SCF correction =     0.000005

     entering subroutine stress ...

          total   stress  (Ry/bohr**3)                   (kbar)     P=   -1.18
  -0.00000247  -0.00000943   0.00000154         -0.36     -1.39      0.23
  -0.00000943  -0.00001337  -0.00000089         -1.39     -1.97     -0.13
   0.00000154  -0.00000089  -0.00000823          0.23     -0.13     -1.21

     General routines

     Parallel routines

   This run was terminated on:  16:27:33  12Mar2020

   JOB DONE.