     Program PWSCF v.6.3MaX starts on 26Mar2020 at 18:16:19

     R & G space division:  proc/nbgrp/npool/nimage =       4
     Waiting for input...
     Reading input from standard input

     Current dimensions of program PWSCF are:
     Max number of different atomic species (ntypx) = 10
     Max number of k-points (npk) =  40000
     Max angular momentum in pseudopotentials (lmaxx) =  3
     Message from routine iosys:
     minimal I/O required, wf_collect reset to FALSE

     Subspace diagonalization in iterative solution of the eigenvalue problem:
     a serial algorithm will be used

     bravais-lattice index     =            0
     lattice parameter (alat)  =       1.8897  a.u.
     unit-cell volume          =    1077.7903 (a.u.)^3
     number of atoms/cell      =            8
     number of atomic types    =            2
     number of electrons       =        97.00
     number of Kohn-Sham states=           59
     kinetic-energy cutoff     =      40.0000  Ry
     charge density cutoff     =     400.0000  Ry
     convergence threshold     =      1.0E-10
     mixing beta               =       0.6000
     number of iterations used =            8  plain     mixing
     Exchange-correlation      = SLA PW PBE PBE ( 1  4  3  4 0 0)
     nstep                     =           50

     celldm(1)=   1.889726  celldm(2)=   0.000000  celldm(3)=   0.000000
     celldm(4)=   0.000000  celldm(5)=   0.000000  celldm(6)=   0.000000

     crystal axes: (cart. coord. in units of alat)
               a(1) = (   1.522502  -2.637051   0.000000 )
               a(2) = (   0.000000   0.000000  -4.972461 )
               a(3) = (   9.135012   5.274102   0.000000 )

     reciprocal axes: (cart. coord. in units 2 pi/alat)
               b(1) = (  0.164203 -0.284409  0.000000 )
               b(2) = (  0.000000  0.000000 -0.201108 )
               b(3) = (  0.082102  0.047401  0.000000 )

     PseudoPot. # 1 for Nb read from file:
     ./Nb.pbe-nsp-van.UPF
     MD5 check sum: 0a22fc7fb0ba19a08ca5db297a5d2854
     Pseudo is Ultrasoft + core correction, Zval = 13.0
     Generated by new atomic code, or converted to UPF format
     Using radial grid of  887 points,  6 beta functions with:
                l(1) =   0
                l(2) =   0
                l(3) =   1
                l(4) =   1
                l(5) =   2
                l(6) =   2
     Q(r) pseudized with  6 coefficients,  rinner =    1.000   1.000   1.000
                                                       1.000   1.000

     PseudoPot. # 2 for Ti read from file:
     ./Ti.pbe-sp-van_ak.UPF
     MD5 check sum: f98fea3e8887528921fefa5636a534ca
     Pseudo is Ultrasoft, Zval = 12.0
     Generated by new atomic code, or converted to UPF format
     Using radial grid of  851 points,  6 beta functions with:
                l(1) =   0
                l(2) =   0
                l(3) =   1
                l(4) =   1
                l(5) =   2
                l(6) =   2
     Q(r) pseudized with  8 coefficients,  rinner =    1.000   1.000   1.000
                                                       1.000   1.000

     atomic species   valence    mass     pseudopotential
        Nb            13.00    92.90638     Nb( 1.00)
        Ti            12.00    47.86700     Ti( 1.00)

      4 Sym. Ops. (no inversion) found

   Cartesian axes

     site n.     atom                  positions (alat units)
         1           Ti  tau(   1) = (   3.0450042   0.0000000  -4.9724614  )
         2           Ti  tau(   2) = (   3.0450058  -1.7580350  -2.4862307  )
         3           Ti  tau(   3) = (   6.0900085   0.0000000  -4.9724614  )
         4           Ti  tau(   4) = (   4.5675079   0.8790162  -2.4862307  )
         5           Ti  tau(   5) = (   7.6125106   2.6370512  -4.9724614  )
         6           Ti  tau(   6) = (   7.6125121   0.8790162  -2.4862307  )
         7           Ti  tau(   7) = (  10.6575148   2.6370512  -4.9724614  )
         8           Nb  tau(   8) = (   9.1350142   3.5160674  -2.4862307  )

     number of k points=   240  Marzari-Vanderbilt smearing, width (Ry)=  0.0200

     Number of k-points >= 100: set verbosity='high' to print them.

     Initial potential from superposition of free atoms

     starting charge   89.99696, renormalised to   97.00000
     Starting wfcs are   83 randomized atomic wfcs

     Self-consistent Calculation

     iteration #  1     ecut=    40.00 Ry     beta= 0.60
     Davidson diagonalization with overlap
     ethr =  1.00E-02,  avg # of iterations =  4.3

     total energy              =    -840.23318240 Ry
     Harris-Foulkes estimate   =    -942.20100411 Ry
     estimated scf accuracy    <     123.99258714 Ry

[...]

     iteration # 25     ecut=    40.00 Ry     beta= 0.60
     Davidson diagonalization with overlap
     c_bands:  1 eigenvalues not converged
     c_bands:  2 eigenvalues not converged
     ethr =  4.93E-05,  avg # of iterations =  7.2

[...]

     End of self-consistent calculation

     Number of k-points >= 100: set verbosity='high' to print the bands.

     the Fermi energy is    11.9187 ev

!    total energy              =    -934.40960672 Ry
     Harris-Foulkes estimate   =    -934.40960672 Ry
     estimated scf accuracy    <          5.8E-11 Ry

     The total energy is the sum of the following terms:

     one-electron contribution =    -353.09125127 Ry
     hartree contribution      =     200.62730880 Ry
     xc contribution           =    -119.27649337 Ry
     ewald contribution        =    -662.66691718 Ry
     smearing contrib. (-TS)   =      -0.00225370 Ry

     convergence has been achieved in  53 iterations

     Forces acting on atoms (cartesian axes, Ry/au):

     atom    1 type  2   force =     0.00086816    0.00050123    0.00000000
     atom    2 type  2   force =    -0.00040142   -0.00023176    0.00000000
     atom    3 type  2   force =    -0.00025275   -0.00014593    0.00000000
     atom    4 type  2   force =    -0.00009072   -0.00005238    0.00000000
     atom    5 type  2   force =     0.00013817    0.00007977    0.00000000
     atom    6 type  2   force =     0.00131184    0.00075739    0.00000000
     atom    7 type  2   force =    -0.00049390   -0.00028516    0.00000000
     atom    8 type  1   force =    -0.00107938   -0.00062318    0.00000000

     Total force =     0.002348     Total SCF correction =     0.000007

     Computing stress (Cartesian axis) and pressure

          total   stress  (Ry/bohr**3)                   (kbar)     P= -133.91
  -0.00086499   0.00000863   0.00000000       -127.24      1.27      0.00
   0.00000863  -0.00087495   0.00000000          1.27   -128.71      0.00
   0.00000000   0.00000000  -0.00099102          0.00      0.00   -145.78

     BFGS Geometry Optimization

     number of scf cycles    =   1
     number of bfgs steps    =   0

     enthalpy new            =    -934.4096067177 Ry

     new trust radius        =       0.1626744080 bohr
     new conv_thr            =            1.0E-10 Ry

     new unit-cell volume =   1005.86391 a.u.^3 (   149.05365 Ang^3 )
     density =      4.76788 g/cm^3

CELL_PARAMETERS (alat=  1.88972599)
   1.489009497  -2.579040287   0.000000000
   0.000000000   0.000000000  -4.849265884
   8.938607273   5.160707686   0.000000000

ATOMIC_POSITIONS (angstrom)
Ti       2.979606100   0.000916316  -4.849265884
Ti       2.978571011  -1.719043204  -2.424632942
Ti       5.958182259   0.001237996  -4.849265884
Ti       4.468878961   0.860746745  -2.424632942
Ti       7.448531750   2.581051928  -4.849265884
Ti       7.448761770   0.861822819  -2.424632942
Ti      10.427361026   2.581519745  -4.849265884
Nb       8.937670670   3.440805027  -2.424632942

     NEW-OLD atomic charge density approx. for the potential
     extrapolated charge   90.56458, renormalised to   97.00000

[...]

     enthalpy old            =    -934.4096067177 Ry
     enthalpy new            =    -934.4614931747 Ry

     CASE: enthalpy_new < enthalpy_old

[...]

     WARNING: bfgs curvature condition failed, Theta= 0.921
     new trust radius        =       0.0072430518 bohr
     new conv_thr            =            1.0E-10 Ry

[...]

     Threshold (ethr) on eigenvalues was too large:
     Diagonalizing with lowered threshold

     Davidson diagonalization with overlap
     ethr =  2.44E-08,  avg # of iterations =  2.2

[...]

     Total force =     0.000041     Total SCF correction =     0.000004
     SCF correction compared to forces is large: reduce conv_thr to get better values

[...]

     small trust_radius: resetting bfgs history

[...]

     number of scf cycles    =  31
     number of bfgs steps    =  30

     enthalpy old            =    -934.4809291854 Ry
     enthalpy new            =    -934.4809291866 Ry

     CASE: enthalpy_new < enthalpy_old

     WARNING: bfgs curvature condition failed, Theta= 0.981
     Message from routine bfgs:
     history already reset at previous step: stopping
     small trust_radius: resetting bfgs history

     new trust radius        =       0.0000166331 bohr
     new conv_thr            =            1.4E-12 Ry

     new unit-cell volume =    938.68066 a.u.^3 (   139.09812 Ang^3 )
     density =      5.10913 g/cm^3

[...]

ATOMIC_POSITIONS (angstrom)
Ti       3.042003025   0.099644431  -4.673054618
Ti       2.905860272  -1.635616232  -2.336527309
Ti       5.975789212   0.136809846  -4.673054618
Ti       4.412076976   0.890655404  -2.336527309
Ti       7.502108925   2.674687959  -4.673054618
Ti       7.333037172   0.920415730  -2.336527309
Ti      10.520603148   2.760759577  -4.673054618
Nb       8.840960638   3.447672766  -2.336527309

     NEW-OLD atomic charge density approx. for the potential
     extrapolated charge   97.00001, renormalised to   97.00000

[...]

     Threshold (ethr) on eigenvalues was too large:
     Diagonalizing with lowered threshold

     Davidson diagonalization with overlap
     ethr =  2.66E-12,  avg # of iterations =  3.6

[...]

     Total force =     0.000023     Total SCF correction =     0.000003
     SCF correction compared to forces is large: reduce conv_thr to get better values

[...]

     bfgs converged in  32 scf cycles and  31 bfgs steps
     (criteria: energy <  1.0E-10 Ry, force <  1.0E-05Ry/Bohr, cell <  1.0E-03kbar)

     End of BFGS Geometry Optimization

     Final enthalpy =    -934.4809291874 Ry
Begin final coordinates
     new unit-cell volume =    938.68066 a.u.^3 (   139.09812 Ang^3 )
     density =      5.10913 g/cm^3

CELL_PARAMETERS (alat=  1.88972599)
   1.434706899  -2.484985434   0.000000000
   0.000000000   0.000000000  -4.673054618
   8.983755452   5.186773998   0.000000000

ATOMIC_POSITIONS (angstrom)
Ti       3.042003025   0.099644431  -4.673054618
Ti       2.905860272  -1.635616232  -2.336527309
Ti       5.975789212   0.136809846  -4.673054618
Ti       4.412076976   0.890655404  -2.336527309
Ti       7.502108925   2.674687959  -4.673054618
Ti       7.333037172   0.920415730  -2.336527309
Ti      10.520603148   2.760759577  -4.673054618
Nb       8.840960638   3.447672766  -2.336527309
End final coordinates

     A final scf calculation at the relaxed structure.
     The G-vectors are recalculated for the final unit cell
     Results may differ from those at the preceding step.

     bravais-lattice index     =            0
     lattice parameter (alat)  =       1.8897  a.u.
     unit-cell volume          =     938.6807 (a.u.)^3
     number of atoms/cell      =            8
     number of atomic types    =            2
     number of electrons       =        97.00
     number of Kohn-Sham states=           59
     kinetic-energy cutoff     =      40.0000  Ry
     charge density cutoff     =     400.0000  Ry
     convergence threshold     =      1.4E-12
     mixing beta               =       0.6000
     number of iterations used =            8  plain     mixing
     Exchange-correlation      = SLA PW PBE PBE ( 1  4  3  4 0 0)

     celldm(1)=   1.889726  celldm(2)=   0.000000  celldm(3)=   0.000000
     celldm(4)=   0.000000  celldm(5)=   0.000000  celldm(6)=   0.000000

     crystal axes: (cart. coord. in units of alat)
               a(1) = (   1.434707  -2.484985   0.000000 )
               a(2) = (   0.000000   0.000000  -4.673055 )
               a(3) = (   8.983755   5.186774   0.000000 )

     reciprocal axes: (cart. coord. in units 2 pi/alat)
               b(1) = (  0.174252 -0.301813  0.000000 )
               b(2) = (  0.000000  0.000000 -0.213993 )
               b(3) = (  0.083484  0.048200  0.000000 )

     PseudoPot. # 1 for Nb read from file:
     ./Nb.pbe-nsp-van.UPF
     MD5 check sum: 0a22fc7fb0ba19a08ca5db297a5d2854
     Pseudo is Ultrasoft + core correction, Zval = 13.0
     Generated by new atomic code, or converted to UPF format
     Using radial grid of  887 points,  6 beta functions with:
                l(1) =   0
                l(2) =   0
                l(3) =   1
                l(4) =   1
                l(5) =   2
                l(6) =   2
     Q(r) pseudized with  6 coefficients,  rinner =    1.000   1.000   1.000
                                                       1.000   1.000

     PseudoPot. # 2 for Ti read from file:
     ./Ti.pbe-sp-van_ak.UPF
     MD5 check sum: f98fea3e8887528921fefa5636a534ca
     Pseudo is Ultrasoft, Zval = 12.0
     Generated by new atomic code, or converted to UPF format
     Using radial grid of  851 points,  6 beta functions with:
                l(1) =   0
                l(2) =   0
                l(3) =   1
                l(4) =   1
                l(5) =   2
                l(6) =   2
     Q(r) pseudized with  8 coefficients,  rinner =    1.000   1.000   1.000
                                                       1.000   1.000

     atomic species   valence    mass     pseudopotential
        Nb            13.00    92.90638     Nb( 1.00)
        Ti            12.00    47.86700     Ti( 1.00)

      4 Sym. Ops. (no inversion) found

   Cartesian axes

     site n.     atom                  positions (alat units)
         1           Ti  tau(   1) = (   3.0420033   0.0996444  -4.6730550  )
         2           Ti  tau(   2) = (   2.9058605  -1.6356164  -2.3365275  )
         3           Ti  tau(   3) = (   5.9757897   0.1368099  -4.6730550  )
         4           Ti  tau(   4) = (   4.4120773   0.8906555  -2.3365275  )
         5           Ti  tau(   5) = (   7.5021095   2.6746882  -4.6730550  )
         6           Ti  tau(   6) = (   7.3330377   0.9204158  -2.3365275  )
         7           Ti  tau(   7) = (  10.5206039   2.7607598  -4.6730550  )
         8           Nb  tau(   8) = (   8.8409613   3.4476730  -2.3365275  )

     number of k points=   240  Marzari-Vanderbilt smearing, width (Ry)=  0.0200

     Number of k-points >= 100: set verbosity='high' to print them.

     Initial potential from superposition of free atoms

     starting charge   89.99696, renormalised to   97.00000
     Starting wfcs are   83 randomized atomic wfcs

     Self-consistent Calculation

[...]

     iteration # 27     ecut=    40.00 Ry     beta= 0.60
     Davidson diagonalization with overlap
     c_bands:  1 eigenvalues not converged
     c_bands:  1 eigenvalues not converged
     c_bands:  1 eigenvalues not converged
     c_bands:  1 eigenvalues not converged
     c_bands:  1 eigenvalues not converged
     c_bands:  1 eigenvalues not converged
     ethr =  3.39E-06,  avg # of iterations =  7.8

[...]

     total energy              =    -934.47271467 Ry
     Harris-Foulkes estimate   =    -934.47271467 Ry
     estimated scf accuracy    <          1.7E-12 Ry

     iteration # 53     ecut=    40.00 Ry     beta= 0.60
     Davidson diagonalization with overlap
     ethr =  1.00E-13,  avg # of iterations =  1.0

     End of self-consistent calculation

     Number of k-points >= 100: set verbosity='high' to print the bands.

     the Fermi energy is    14.0125 ev

!    total energy              =    -934.47271467 Ry
     Harris-Foulkes estimate   =    -934.47271467 Ry
     estimated scf accuracy    <          1.2E-12 Ry

     The total energy is the sum of the following terms:

     one-electron contribution =    -306.40870822 Ry
     hartree contribution      =     185.91658217 Ry
     xc contribution           =    -120.10979688 Ry
     ewald contribution        =    -693.86932917 Ry
     smearing contrib. (-TS)   =      -0.00146257 Ry

     convergence has been achieved in  53 iterations

     Forces acting on atoms (cartesian axes, Ry/au):

     atom    1 type  2   force =    -0.00003261   -0.00001883    0.00000000
     atom    2 type  2   force =    -0.00004686   -0.00002706    0.00000000
     atom    3 type  2   force =    -0.00001601   -0.00000925    0.00000000
     atom    4 type  2   force =     0.00004807    0.00002775    0.00000000
     atom    5 type  2   force =     0.00020742    0.00011975    0.00000000
     atom    6 type  2   force =     0.00002893    0.00001670    0.00000000
     atom    7 type  2   force =    -0.00013745   -0.00007936    0.00000000
     atom    8 type  1   force =    -0.00005148   -0.00002972    0.00000000

     Total force =     0.000308     Total SCF correction =     0.000002

     Computing stress (Cartesian axis) and pressure

          total   stress  (Ry/bohr**3)                   (kbar)     P=   -7.37
  -0.00004302   0.00000700   0.00000000         -6.33      1.03      0.00
   0.00000700  -0.00005110   0.00000000          1.03     -7.52      0.00
   0.00000000   0.00000000  -0.00005612          0.00      0.00     -8.26

     General routines

     Parallel routines

       8h

   This run was terminated on:   4:24:50  27Mar2020

   JOB DONE.