     Program PWSCF v.6.0 (svn rev. 13079) starts on 28Apr2018 at 12:55:32

     Current dimensions of program PWSCF are:
     Max number of different atomic species (ntypx) = 10
     Max number of k-points (npk) =  40000
     Max angular momentum in pseudopotentials (lmaxx) =  3

     Subspace diagonalization in iterative solution of the eigenvalue problem:
     a serial algorithm will be used

     warning: symmetry operation #  2 not compatible with FFT grid.
  -1   0   0
  -1   0   1
  -1   1   0
     warning: symmetry operation #  3 not compatible with FFT grid.
   0   1  -1
   1   0  -1
   0   0  -1
     warning: symmetry operation #  4 not compatible with FFT grid.
   0  -1   1
   0  -1   0
   1  -1   0
     warning: symmetry operation #  6 not compatible with FFT grid.
   1   0   0
   1   0  -1
   1  -1   0
     warning: symmetry operation #  7 not compatible with FFT grid.
   0  -1   1
  -1   0   1
   0   0   1
     warning: symmetry operation #  8 not compatible with FFT grid.
   0   1  -1
   0   1   0
  -1   1   0

     bravais-lattice index     =            0
     lattice parameter (alat)  =       1.8897  a.u.
     unit-cell volume          =     440.0051 (a.u.)^3
     number of atoms/cell      =            3
     number of atomic types    =            2
     number of electrons       =        37.00
     number of Kohn-Sham states=           23
     kinetic-energy cutoff     =      50.0000  Ry
     charge density cutoff     =     500.0000  Ry
     convergence threshold     =      1.0E-10
     mixing beta               =       0.6000
     number of iterations used =            8  plain     mixing
     Exchange-correlation      = SLA  PW   PBE  PBE ( 1  4  3  4 0 0)
     nstep                     =           50

     celldm(1)=   1.889726  celldm(2)=   0.000000  celldm(3)=   0.000000
     celldm(4)=   0.000000  celldm(5)=   0.000000  celldm(6)=   0.000000

     crystal axes: (cart. coord. in units of alat)
               a(1) = (   0.000000   7.032126   3.516063 )
               a(2) = (   1.758031   5.274095   5.274095 )
               a(3) = (   1.758031   1.758031  -1.758031 )

     reciprocal axes: (cart. coord. in units 2 pi/alat)
               b(1) = ( -0.284409  0.189606 -0.094803 )
               b(2) = (  0.284409 -0.094803  0.189606 )
               b(3) = (  0.284409  0.094803 -0.189606 )

     PseudoPot. # 1 for Nb read from file:
     ./Nb.pbe-nsp-van.UPF
     MD5 check sum: 0a22fc7fb0ba19a08ca5db297a5d2854
     Pseudo is Ultrasoft + core correction, Zval = 13.0
     Generated by new atomic code, or converted to UPF format
     Using radial grid of  887 points,  6 beta functions with:
                l(1) =   0
                l(2) =   0
                l(3) =   1
                l(4) =   1
                l(5) =   2
                l(6) =   2
     Q(r) pseudized with  6 coefficients,  rinner =    1.000   1.000   1.000
                                                       1.000   1.000

     PseudoPot. # 2 for Ti read from file:
     ./Ti.pbe-sp-van_ak.UPF
     MD5 check sum: f98fea3e8887528921fefa5636a534ca
     Pseudo is Ultrasoft, Zval = 12.0
     Generated by new atomic code, or converted to UPF format
     Using radial grid of  851 points,  6 beta functions with:
                l(1) =   0
                l(2) =   0
                l(3) =   1
                l(4) =   1
                l(5) =   2
                l(6) =   2
     Q(r) pseudized with  8 coefficients,  rinner =    1.000   1.000   1.000
                                                       1.000   1.000

     atomic species   valence    mass     pseudopotential
        Nb            13.00    92.90638     Nb( 1.00)
        Ti            12.00    47.86700     Ti( 1.00)

      2 Sym. Ops., with inversion, found ( 1 have fractional translation)

   Cartesian axes

     site n.     atom                  positions (alat units)
         1           Ti  tau(   1) = (   1.7580316   8.7901582   5.2740949  )
         2           Ti  tau(   2) = (   3.5160633  14.0642531   7.0321265  )
         3           Nb  tau(   3) = (   1.7580316   5.2740949   1.7580316  )

     number of k points=  1376  Marzari-Vanderbilt smearing, width (Ry)=  0.0200

     Number of k-points >= 100: set verbosity='high' to print them.

     Initial potential from superposition of free atoms

     starting charge   34.99718, renormalised to   37.00000
     Starting wfc are   33 randomized atomic wfcs

     Self-consistent Calculation

     iteration #  1     ecut=    50.00 Ry     beta=0.60
     Davidson diagonalization with overlap
     ethr =  1.00E-02,  avg # of iterations =  3.7

     total energy              =    -337.61183502 Ry
     Harris-Foulkes estimate   =    -354.10331198 Ry
     estimated scf accuracy    <      20.44327367 Ry

[...]

     iteration # 11     ecut=    50.00 Ry     beta=0.60
     Davidson diagonalization with overlap
     c_bands:  1 eigenvalues not converged
     ethr =  4.10E-05,  avg # of iterations =  5.0

[...]

     End of self-consistent calculation

     Number of k-points >= 100: set verbosity='high' to print the bands.

     the Fermi energy is    11.4368 ev

!    total energy              =    -351.16149408 Ry
     Harris-Foulkes estimate   =    -351.16149408 Ry
     estimated scf accuracy    <          3.7E-11 Ry

     The total energy is the sum of the following terms:

     one-electron contribution =    -126.56283548 Ry
     hartree contribution      =      72.38664319 Ry
     xc contribution           =     -46.99874824 Ry
     ewald contribution        =    -249.98560518 Ry
     smearing contrib. (-TS)   =      -0.00094838 Ry

     convergence has been achieved in  24 iterations

     Forces acting on atoms (Ry/au):

     atom    1 type  2   force =    -0.00000008    0.00840379    0.00840385
     atom    2 type  2   force =     0.00000008   -0.00840379   -0.00840385
     atom    3 type  1   force =     0.00000000    0.00000000    0.00000000

     Total force =     0.016808     Total SCF correction =     0.000022

     entering subroutine stress ...

          total   stress  (Ry/bohr**3)                   (kbar)     P= -188.75
  -0.00125619   0.00000000  -0.00000000       -184.79      0.00     -0.00
   0.00000000  -0.00129650   0.00001678          0.00   -190.72      2.47
  -0.00000000   0.00001678  -0.00129650         -0.00      2.47   -190.72

     BFGS Geometry Optimization

     number of scf cycles    =   1
     number of bfgs steps    =   0

     enthalpy new            =    -351.1614940770 Ry

     new trust radius        =       0.1359903138 bohr
     new conv_thr            =            1.0E-10 Ry

     new unit-cell volume =    399.00696 a.u.^3 (    59.12673 Ang^3 )

CELL_PARAMETERS (alat=  1.88972599)
  -0.000000012   6.805671743   3.405047903
   1.702820914   5.105359827   5.105359809
   1.702821108   1.700311973  -1.700312032

ATOMIC_POSITIONS (angstrom)
Ti       1.702820928   8.511763189   5.111139314
Ti       3.405642053  13.607038724   6.805790831
Nb       1.702821040   5.103885172   1.703261216

     NEW-OLD atomic charge density approx. for the potential
     extrapolated charge   33.40402, renormalised to   37.00000

[...]

     enthalpy old            =    -351.1614940770 Ry
     enthalpy new            =    -351.2062498445 Ry

     CASE: enthalpy_new < enthalpy_old

[...]

     Total force =     0.000005     Total SCF correction =     0.000009
     SCF correction compared to forces is large: reduce conv_thr to get better values

[...]

     Threshold (ethr) on eigenvalues was too large:
     Diagonalizing with lowered threshold

     Davidson diagonalization with overlap
     ethr =  7.12E-08,  avg # of iterations =  1.7

[...]

     CASE: enthalpy_new < enthalpy_old

     small trust_radius: resetting bfgs history

     new trust radius        =       0.0000143989 bohr
     new conv_thr            =            1.0E-12 Ry

[...]

     NEW-OLD atomic charge density approx. for the potential
     extrapolated charge   36.99969, renormalised to   37.00000

[...]

     number of scf cycles    =  18
     number of bfgs steps    =  17

     enthalpy old            =    -351.2276492044 Ry
     enthalpy new            =    -351.2276492006 Ry

     CASE: enthalpy_new > enthalpy_old

     new trust radius        =       0.0000013344 bohr

     trust_radius < trust_radius_min

     resetting bfgs history

     Message from routine bfgs:
     history already reset at previous step: stopping
     new conv_thr            =            1.0E-12 Ry

     new unit-cell volume =    353.47641 a.u.^3 (    52.37980 Ang^3 )

[...]

ATOMIC_POSITIONS (angstrom)
Ti       1.659728973   8.102328004   4.849782574
Ti       3.319463040  12.947982016   6.442861326
Nb       1.659730683   4.860573881   1.608016218

     NEW-OLD atomic charge density approx. for the potential

[...]

     Threshold (ethr) on eigenvalues was too large:
     Diagonalizing with lowered threshold

     Davidson diagonalization with overlap
     ethr =  9.46E-14,  avg # of iterations =  1.0

[...]

     Total force =     0.000017     Total SCF correction =     0.000003
     SCF correction compared to forces is large: reduce conv_thr to get better values

[...]

     bfgs converged in  19 scf cycles and  17 bfgs steps
     (criteria: energy <  1.0E-10, force <  1.0E-05, cell <  1.0E-03)

     End of BFGS Geometry Optimization

     Final enthalpy =    -351.2276492006 Ry
Begin final coordinates
     new unit-cell volume =    353.47641 a.u.^3 (    52.37980 Ang^3 )

CELL_PARAMETERS (alat=  1.88972599)
   0.000000393   6.477720771   3.225165242
   1.659730254   4.851441486   4.851446222
   1.659730702   1.626279693  -1.626281405

ATOMIC_POSITIONS (angstrom)
Ti       1.659728973   8.102328004   4.849782574
Ti       3.319463040  12.947982016   6.442861326
Nb       1.659730683   4.860573881   1.608016218
End final coordinates

     A final scf calculation at the relaxed structure.
     The G-vectors are recalculated for the final unit cell
     Results may differ from those at the preceding step.

   Info: using nr1, nr2, nr3 values from input

   Info: using nr1, nr2, nr3 values from input

     bravais-lattice index     =            0
     lattice parameter (alat)  =       1.8897  a.u.
     unit-cell volume          =     353.4764 (a.u.)^3
     number of atoms/cell      =            3
     number of atomic types    =            2
     number of electrons       =        37.00
     number of Kohn-Sham states=           23
     kinetic-energy cutoff     =      50.0000  Ry
     charge density cutoff     =     500.0000  Ry
     convergence threshold     =      1.0E-12
     mixing beta               =       0.6000
     number of iterations used =            8  plain     mixing
     Exchange-correlation      = SLA  PW   PBE  PBE ( 1  4  3  4 0 0)

     celldm(1)=   1.889726  celldm(2)=   0.000000  celldm(3)=   0.000000
     celldm(4)=   0.000000  celldm(5)=   0.000000  celldm(6)=   0.000000

     crystal axes: (cart. coord. in units of alat)
               a(1) = (   0.000000   6.477721   3.225165 )
               a(2) = (   1.659730   4.851441   4.851446 )
               a(3) = (   1.659731   1.626280  -1.626281 )

     reciprocal axes: (cart. coord. in units 2 pi/alat)
               b(1) = ( -0.301254  0.205256 -0.102194 )
               b(2) = (  0.301254 -0.102194  0.205256 )
               b(3) = (  0.301254  0.102194 -0.205256 )

     PseudoPot. # 1 for Nb read from file:
     ./Nb.pbe-nsp-van.UPF
     MD5 check sum: 0a22fc7fb0ba19a08ca5db297a5d2854
     Pseudo is Ultrasoft + core correction, Zval = 13.0
     Generated by new atomic code, or converted to UPF format
     Using radial grid of  887 points,  6 beta functions with:
                l(1) =   0
                l(2) =   0
                l(3) =   1
                l(4) =   1
                l(5) =   2
                l(6) =   2
     Q(r) pseudized with  6 coefficients,  rinner =    1.000   1.000   1.000
                                                       1.000   1.000

     PseudoPot. # 2 for Ti read from file:
     ./Ti.pbe-sp-van_ak.UPF
     MD5 check sum: f98fea3e8887528921fefa5636a534ca
     Pseudo is Ultrasoft, Zval = 12.0
     Generated by new atomic code, or converted to UPF format
     Using radial grid of  851 points,  6 beta functions with:
                l(1) =   0
                l(2) =   0
                l(3) =   1
                l(4) =   1
                l(5) =   2
                l(6) =   2
     Q(r) pseudized with  8 coefficients,  rinner =    1.000   1.000   1.000
                                                       1.000   1.000

     atomic species   valence    mass     pseudopotential
        Nb            13.00    92.90638     Nb( 1.00)
        Ti            12.00    47.86700     Ti( 1.00)

      2 Sym. Ops., with inversion, found ( 1 have fractional translation)

   Cartesian axes

     site n.     atom                  positions (alat units)
         1           Ti  tau(   1) = (   1.6597291   8.1023286   4.8497829  )
         2           Ti  tau(   2) = (   3.3194633  12.9479830   6.4428618  )
         3           Nb  tau(   3) = (   1.6597308   4.8605743   1.6080163  )

     number of k points=  1376  Marzari-Vanderbilt smearing, width (Ry)=  0.0200

     Number of k-points >= 100: set verbosity='high' to print them.

     Initial potential from superposition of free atoms

     starting charge   34.99718, renormalised to   37.00000
     Starting wfc are   33 randomized atomic wfcs

     Self-consistent Calculation

     iteration #  1     ecut=    50.00 Ry     beta=0.60
     Davidson diagonalization with overlap
     c_bands:  1 eigenvalues not converged
     c_bands:  2 eigenvalues not converged
     c_bands:  1 eigenvalues not converged
     c_bands:  1 eigenvalues not converged
     c_bands:  1 eigenvalues not converged
     c_bands:  2 eigenvalues not converged
     c_bands:  1 eigenvalues not converged
     c_bands:  1 eigenvalues not converged
     c_bands:  1 eigenvalues not converged
     c_bands:  1 eigenvalues not converged
     c_bands:  1 eigenvalues not converged
     c_bands:  1 eigenvalues not converged
     c_bands:  1 eigenvalues not converged
     c_bands:  1 eigenvalues not converged
     c_bands:  1 eigenvalues not converged
     c_bands:  1 eigenvalues not converged
     c_bands:  1 eigenvalues not converged
     c_bands:  1 eigenvalues not converged
     c_bands:  1 eigenvalues not converged
     c_bands:  1 eigenvalues not converged
     c_bands:  1 eigenvalues not converged
     c_bands:  2 eigenvalues not converged
     c_bands:  1 eigenvalues not converged
     c_bands:  2 eigenvalues not converged
     c_bands:  2 eigenvalues not converged
     c_bands:  1 eigenvalues not converged
     c_bands:  1 eigenvalues not converged
     c_bands:  1 eigenvalues not converged
     c_bands:  1 eigenvalues not converged
     c_bands:  1 eigenvalues not converged
     c_bands:  1 eigenvalues not converged
     c_bands:  1 eigenvalues not converged
     c_bands:  1 eigenvalues not converged
     c_bands:  1 eigenvalues not converged
     c_bands:  1 eigenvalues not converged
     c_bands:  1 eigenvalues not converged
     c_bands:  1 eigenvalues not converged
     c_bands:  1 eigenvalues not converged
     c_bands:  1 eigenvalues not converged
     c_bands:  1 eigenvalues not converged
     c_bands:  1 eigenvalues not converged
     c_bands:  2 eigenvalues not converged
     c_bands:  1 eigenvalues not converged
     c_bands:  2 eigenvalues not converged
     c_bands:  2 eigenvalues not converged
     c_bands:  1 eigenvalues not converged
     c_bands:  1 eigenvalues not converged
     c_bands:  1 eigenvalues not converged
     c_bands:  1 eigenvalues not converged
     c_bands:  1 eigenvalues not converged
     c_bands:  1 eigenvalues not converged
     c_bands:  1 eigenvalues not converged
     c_bands:  1 eigenvalues not converged
     c_bands:  1 eigenvalues not converged
     c_bands:  1 eigenvalues not converged
     c_bands:  1 eigenvalues not converged
     c_bands:  1 eigenvalues not converged
     c_bands:  2 eigenvalues not converged
     c_bands:  2 eigenvalues not converged
     c_bands:  2 eigenvalues not converged
[...]
     c_bands:  1 eigenvalues not converged
     c_bands:  1 eigenvalues not converged
     c_bands:  1 eigenvalues not converged
     c_bands:  1 eigenvalues not converged
     c_bands:  1 eigenvalues not converged
     c_bands:  1 eigenvalues not converged
     c_bands:  1 eigenvalues not converged
     c_bands:  1 eigenvalues not converged
     c_bands:  1 eigenvalues not converged
     c_bands:  1 eigenvalues not converged
     c_bands:  1 eigenvalues not converged
     c_bands:  1 eigenvalues not converged
     c_bands:  1 eigenvalues not converged
     c_bands:  1 eigenvalues not converged
     c_bands:  1 eigenvalues not converged
     ethr =  1.00E-06,  avg # of iterations = 14.4

[...]

     total energy              =    -351.22733104 Ry
     Harris-Foulkes estimate   =    -351.22733104 Ry
     estimated scf accuracy    <          6.5E-12 Ry

     iteration # 20     ecut=    50.00 Ry     beta=0.60
     Davidson diagonalization with overlap
     ethr =  1.00E-13,  avg # of iterations =  2.7

     End of self-consistent calculation

     Number of k-points >= 100: set verbosity='high' to print the bands.

     the Fermi energy is    14.9014 ev

!    total energy              =    -351.22733104 Ry
     Harris-Foulkes estimate   =    -351.22733104 Ry
     estimated scf accuracy    <          5.7E-14 Ry

     The total energy is the sum of the following terms:

     one-electron contribution =     -98.66818970 Ry
     hartree contribution      =      63.79696049 Ry
     xc contribution           =     -47.51916430 Ry
     ewald contribution        =    -268.83634556 Ry
     smearing contrib. (-TS)   =      -0.00059198 Ry

     convergence has been achieved in  20 iterations

     Forces acting on atoms (Ry/au):

     atom    1 type  2   force =     0.00000016   -0.00000371   -0.00000303
     atom    2 type  2   force =    -0.00000016    0.00000371    0.00000303
     atom    3 type  1   force =     0.00000000    0.00000000    0.00000000

     Total force =     0.000007     Total SCF correction =     0.000000

     entering subroutine stress ...

          total   stress  (Ry/bohr**3)                   (kbar)     P=   -0.48
  -0.00000403  -0.00000000   0.00000000         -0.59     -0.00      0.00
  -0.00000000  -0.00000289   0.00000036         -0.00     -0.43      0.05
   0.00000000   0.00000036  -0.00000292          0.00      0.05     -0.43

     General routines

     Parallel routines

   This run was terminated on:   9:30:54  29Apr2018

   JOB DONE.