     Program PWSCF v.6.0 (svn rev. 13079) starts on  2May2018 at 19:47:29

     Current dimensions of program PWSCF are:
     Max number of different atomic species (ntypx) = 10
     Max number of k-points (npk) =  40000
     Max angular momentum in pseudopotentials (lmaxx) =  3

     Subspace diagonalization in iterative solution of the eigenvalue problem:
     a serial algorithm will be used

     bravais-lattice index     =            0
     lattice parameter (alat)  =       1.8897  a.u.
     unit-cell volume          =    1026.6786 (a.u.)^3
     number of atoms/cell      =            7
     number of atomic types    =            2
     number of electrons       =        88.00
     number of Kohn-Sham states=           53
     kinetic-energy cutoff     =      50.0000  Ry
     charge density cutoff     =     500.0000  Ry
     convergence threshold     =      1.0E-10
     mixing beta               =       0.6000
     number of iterations used =            8  plain     mixing
     Exchange-correlation      = SLA  PW   PBE  PBE ( 1  4  3  4 0 0)
     nstep                     =           50

     celldm(1)=   1.889726  celldm(2)=   0.000000  celldm(3)=   0.000000
     celldm(4)=   0.000000  celldm(5)=   0.000000  celldm(6)=   0.000000

     crystal axes: (cart. coord. in units of alat)
               a(1) = (  -1.758031  12.306221  -1.758031 )
               a(2) = (   1.758031  12.306221   1.758031 )
               a(3) = (   1.758031 -12.306221  -1.758031 )

     reciprocal axes: (cart. coord. in units 2 pi/alat)
               b(1) = (  0.000000  0.040630 -0.284409 )
               b(2) = (  0.284409  0.040630  0.000000 )
               b(3) = (  0.284409  0.000000 -0.284409 )

     PseudoPot. # 1 for Nb read from file:
     ./Nb.pbe-nsp-van.UPF
     MD5 check sum: 0a22fc7fb0ba19a08ca5db297a5d2854
     Pseudo is Ultrasoft + core correction, Zval = 13.0
     Generated by new atomic code, or converted to UPF format
     Using radial grid of  887 points,  6 beta functions with:
                l(1) =   0
                l(2) =   0
                l(3) =   1
                l(4) =   1
                l(5) =   2
                l(6) =   2
     Q(r) pseudized with  6 coefficients,  rinner =    1.000   1.000   1.000
                                                       1.000   1.000

     PseudoPot. # 2 for Ti read from file:
     ./Ti.pbe-sp-van_ak.UPF
     MD5 check sum: f98fea3e8887528921fefa5636a534ca
     Pseudo is Ultrasoft, Zval = 12.0
     Generated by new atomic code, or converted to UPF format
     Using radial grid of  851 points,  6 beta functions with:
                l(1) =   0
                l(2) =   0
                l(3) =   1
                l(4) =   1
                l(5) =   2
                l(6) =   2
     Q(r) pseudized with  8 coefficients,  rinner =    1.000   1.000   1.000
                                                       1.000   1.000

     atomic species   valence    mass     pseudopotential
        Nb            13.00    92.90638     Nb( 1.00)
        Ti            12.00    47.86700     Ti( 1.00)

      8 Sym. Ops. (no inversion) found

   Cartesian axes

     site n.     atom                  positions (alat units)
         1           Ti  tau(   1) = (   1.7580316   1.7580316  -1.7580316  )
         2           Ti  tau(   2) = (   1.7580316   5.2740949  -1.7580316  )
         3           Nb  tau(   3) = (   1.7580316   8.7901582  -1.7580316  )
         4           Nb  tau(   4) = (   1.7580316  12.3062214  -1.7580316  )
         5           Ti  tau(   5) = (   1.7580316  -8.7901582  -1.7580316  )
         6           Nb  tau(   6) = (   1.7580316  -5.2740949  -1.7580316  )
         7           Nb  tau(   7) = (   1.7580316  -1.7580316  -1.7580316  )

     number of k points=   126  Marzari-Vanderbilt smearing, width (Ry)=  0.0200

     Number of k-points >= 100: set verbosity='high' to print them.

     Initial potential from superposition of free atoms

     starting charge   84.98893, renormalised to   88.00000
     Starting wfc are   82 randomized atomic wfcs

     Self-consistent Calculation

     iteration #  1     ecut=    50.00 Ry     beta=0.60
     Davidson diagonalization with overlap
     ethr =  1.00E-02,  avg # of iterations =  4.9

     total energy              =    -575.22847029 Ry
     Harris-Foulkes estimate   =    -857.80158427 Ry
     estimated scf accuracy    <     341.36799535 Ry

     iteration #  2     ecut=    50.00 Ry     beta=0.60
     Davidson diagonalization with overlap
     c_bands:  3 eigenvalues not converged
     c_bands:  1 eigenvalues not converged
     c_bands:  1 eigenvalues not converged
     c_bands:  1 eigenvalues not converged
     c_bands:  1 eigenvalues not converged
     c_bands:  1 eigenvalues not converged
     c_bands:  1 eigenvalues not converged
     c_bands:  2 eigenvalues not converged
     c_bands:  2 eigenvalues not converged
     c_bands:  1 eigenvalues not converged
     c_bands:  2 eigenvalues not converged
     c_bands:  2 eigenvalues not converged
     c_bands:  3 eigenvalues not converged
     c_bands:  3 eigenvalues not converged
     c_bands:  2 eigenvalues not converged
     c_bands:  1 eigenvalues not converged
     c_bands:  1 eigenvalues not converged
     ethr =  1.00E-02,  avg # of iterations = 18.0

[...]

     End of self-consistent calculation

     Number of k-points >= 100: set verbosity='high' to print the bands.

     the Fermi energy is    12.4977 ev

!    total energy              =    -821.51773378 Ry
     Harris-Foulkes estimate   =    -821.51773378 Ry
     estimated scf accuracy    <          9.4E-11 Ry

     The total energy is the sum of the following terms:

     one-electron contribution =    -253.16249681 Ry
     hartree contribution      =     152.84530390 Ry
     xc contribution           =    -116.12442836 Ry
     ewald contribution        =    -605.07442879 Ry
     smearing contrib. (-TS)   =      -0.00168372 Ry

     convergence has been achieved in  44 iterations

     Forces acting on atoms (Ry/au):

     atom    1 type  2   force =     0.00000000   -0.01501253    0.00000000
     atom    2 type  2   force =     0.00000000    0.01501451    0.00000000
     atom    3 type  1   force =     0.00000000   -0.00562600    0.00000000
     atom    4 type  1   force =     0.00000000   -0.01140030    0.00000000
     atom    5 type  2   force =     0.00000000    0.00000186   -0.00000000
     atom    6 type  1   force =    -0.00000000    0.01139847    0.00000000
     atom    7 type  1   force =     0.00000000    0.00562399   -0.00000000

     Total force =     0.027821     Total SCF correction =     0.000035

     entering subroutine stress ...

          total   stress  (Ry/bohr**3)                   (kbar)     P= -200.73
  -0.00135413  -0.00000000  -0.00000000       -199.20     -0.00     -0.00
   0.00000000  -0.00138540  -0.00000000          0.00   -203.80     -0.00
   0.00000000   0.00000000  -0.00135413          0.00      0.00   -199.20

     BFGS Geometry Optimization

     number of scf cycles    =   1
     number of bfgs steps    =   0

     enthalpy new            =    -821.5177337837 Ry

     new trust radius        =       0.2219535331 bohr
     new conv_thr            =            1.0E-10 Ry

     new unit-cell volume =    925.15017 a.u.^3 (   137.09311 Ang^3 )

CELL_PARAMETERS (alat=  1.88972599)
  -1.698516380  11.879994914  -1.698516380
   1.698516380  11.879994914   1.698516380
   1.698516380 -11.879994914  -1.698516380

ATOMIC_POSITIONS (angstrom)
Ti       1.698516380   1.689472992  -1.698516380
Ti       1.698516380   5.099096543  -1.698516380
Nb       1.698516380   8.482836615  -1.698516380
Nb       1.698516380  11.874171082  -1.698516380
Ti       1.698516380  -8.485709702  -1.698516380
Nb       1.698516380  -5.085603493  -1.698516380
Nb       1.698516380  -1.694269122  -1.698516380

     NEW-OLD atomic charge density approx. for the potential
     extrapolated charge   78.67309, renormalised to   88.00000

[...]

     enthalpy old            =    -821.5177337837 Ry
     enthalpy new            =    -821.6315082997 Ry

     CASE: enthalpy_new < enthalpy_old

[...]

     Threshold (ethr) on eigenvalues was too large:
     Diagonalizing with lowered threshold

     Davidson diagonalization with overlap
     ethr =  3.99E-08,  avg # of iterations =  2.1

[...]

     small trust_radius: resetting bfgs history

[...]

     number of scf cycles    =  21
     number of bfgs steps    =  20

     enthalpy old            =    -821.6713117790 Ry
     enthalpy new            =    -821.6713117834 Ry

     CASE: enthalpy_new < enthalpy_old

     Message from routine bfgs:
     history already reset at previous step: stopping
     small trust_radius: resetting bfgs history

     new trust radius        =       0.0000188074 bohr
     new conv_thr            =            1.9E-12 Ry

     new unit-cell volume =    836.09960 a.u.^3 (   123.89718 Ang^3 )

[...]

ATOMIC_POSITIONS (angstrom)
Ti       1.647285415   1.605509651  -1.647285415
Ti       1.647285415   4.917161921  -1.647285415
Nb       1.647285415   8.129334718  -1.647285415
Nb       1.647285415  11.437531506  -1.647285415
Ti       1.647285415  -8.153344175  -1.647285415
Nb       1.647285415  -4.914853880  -1.647285415
Nb       1.647285415  -1.606657872  -1.647285415

     NEW-OLD atomic charge density approx. for the potential
     extrapolated charge   87.99953, renormalised to   88.00000

[...]

     Threshold (ethr) on eigenvalues was too large:
     Diagonalizing with lowered threshold

     Davidson diagonalization with overlap
     ethr =  2.43E-10,  avg # of iterations =  1.0

[...]

     Total force =     0.000024     Total SCF correction =     0.000003
     SCF correction compared to forces is large: reduce conv_thr to get better values

[...]

     bfgs converged in  22 scf cycles and  21 bfgs steps
     (criteria: energy <  1.0E-10, force <  1.0E-05, cell <  1.0E-03)

     End of BFGS Geometry Optimization

     Final enthalpy =    -821.6713117846 Ry
Begin final coordinates
     new unit-cell volume =    836.09960 a.u.^3 (   123.89718 Ang^3 )

CELL_PARAMETERS (alat=  1.88972599)
  -1.647285415  11.414681870  -1.647285415
   1.647285415  11.414681870   1.647285415
   1.647285415 -11.414681870  -1.647285415

ATOMIC_POSITIONS (angstrom)
Ti       1.647285415   1.605509651  -1.647285415
Ti       1.647285415   4.917161921  -1.647285415
Nb       1.647285415   8.129334718  -1.647285415
Nb       1.647285415  11.437531506  -1.647285415
Ti       1.647285415  -8.153344175  -1.647285415
Nb       1.647285415  -4.914853880  -1.647285415
Nb       1.647285415  -1.606657872  -1.647285415
End final coordinates

     A final scf calculation at the relaxed structure.
     The G-vectors are recalculated for the final unit cell
     Results may differ from those at the preceding step.

   Info: using nr1, nr2, nr3 values from input

   Info: using nr1, nr2, nr3 values from input

     bravais-lattice index     =            0
     lattice parameter (alat)  =       1.8897  a.u.
     unit-cell volume          =     836.0996 (a.u.)^3
     number of atoms/cell      =            7
     number of atomic types    =            2
     number of electrons       =        88.00
     number of Kohn-Sham states=           53
     kinetic-energy cutoff     =      50.0000  Ry
     charge density cutoff     =     500.0000  Ry
     convergence threshold     =      1.9E-12
     mixing beta               =       0.6000
     number of iterations used =            8  plain     mixing
     Exchange-correlation      = SLA  PW   PBE  PBE ( 1  4  3  4 0 0)

     celldm(1)=   1.889726  celldm(2)=   0.000000  celldm(3)=   0.000000
     celldm(4)=   0.000000  celldm(5)=   0.000000  celldm(6)=   0.000000

     crystal axes: (cart. coord. in units of alat)
               a(1) = (  -1.647285  11.414682  -1.647285 )
               a(2) = (   1.647285  11.414682   1.647285 )
               a(3) = (   1.647285 -11.414682  -1.647285 )

     reciprocal axes: (cart. coord. in units 2 pi/alat)
               b(1) = (  0.000000  0.043803 -0.303530 )
               b(2) = (  0.303530  0.043803  0.000000 )
               b(3) = (  0.303530  0.000000 -0.303530 )

     PseudoPot. # 1 for Nb read from file:
     ./Nb.pbe-nsp-van.UPF
     MD5 check sum: 0a22fc7fb0ba19a08ca5db297a5d2854
     Pseudo is Ultrasoft + core correction, Zval = 13.0
     Generated by new atomic code, or converted to UPF format
     Using radial grid of  887 points,  6 beta functions with:
                l(1) =   0
                l(2) =   0
                l(3) =   1
                l(4) =   1
                l(5) =   2
                l(6) =   2
     Q(r) pseudized with  6 coefficients,  rinner =    1.000   1.000   1.000
                                                       1.000   1.000

     PseudoPot. # 2 for Ti read from file:
     ./Ti.pbe-sp-van_ak.UPF
     MD5 check sum: f98fea3e8887528921fefa5636a534ca
     Pseudo is Ultrasoft, Zval = 12.0
     Generated by new atomic code, or converted to UPF format
     Using radial grid of  851 points,  6 beta functions with:
                l(1) =   0
                l(2) =   0
                l(3) =   1
                l(4) =   1
                l(5) =   2
                l(6) =   2
     Q(r) pseudized with  8 coefficients,  rinner =    1.000   1.000   1.000
                                                       1.000   1.000

     atomic species   valence    mass     pseudopotential
        Nb            13.00    92.90638     Nb( 1.00)
        Ti            12.00    47.86700     Ti( 1.00)

      8 Sym. Ops. (no inversion) found

   Cartesian axes

     site n.     atom                  positions (alat units)
         1           Ti  tau(   1) = (   1.6472855   1.6055098  -1.6472855  )
         2           Ti  tau(   2) = (   1.6472855   4.9171623  -1.6472855  )
         3           Nb  tau(   3) = (   1.6472855   8.1293353  -1.6472855  )
         4           Nb  tau(   4) = (   1.6472855  11.4375324  -1.6472855  )
         5           Ti  tau(   5) = (   1.6472855  -8.1533448  -1.6472855  )
         6           Nb  tau(   6) = (   1.6472855  -4.9148543  -1.6472855  )
         7           Nb  tau(   7) = (   1.6472855  -1.6066580  -1.6472855  )

     number of k points=   126  Marzari-Vanderbilt smearing, width (Ry)=  0.0200

     Number of k-points >= 100: set verbosity='high' to print them.

     Initial potential from superposition of free atoms

     starting charge   84.98893, renormalised to   88.00000
     Starting wfc are   82 randomized atomic wfcs

     Self-consistent Calculation

[...]

     iteration #  2     ecut=    50.00 Ry     beta=0.60
     Davidson diagonalization with overlap
     c_bands:  2 eigenvalues not converged
     c_bands:  4 eigenvalues not converged
     c_bands:  1 eigenvalues not converged
     c_bands:  1 eigenvalues not converged
     c_bands:  1 eigenvalues not converged
     c_bands:  1 eigenvalues not converged
     c_bands:  2 eigenvalues not converged
     c_bands:  1 eigenvalues not converged
     c_bands:  2 eigenvalues not converged
     c_bands:  1 eigenvalues not converged
     c_bands:  1 eigenvalues not converged
     c_bands:  4 eigenvalues not converged
     c_bands:  5 eigenvalues not converged
     c_bands:  2 eigenvalues not converged
     c_bands:  2 eigenvalues not converged
     c_bands:  5 eigenvalues not converged
     c_bands:  1 eigenvalues not converged
     c_bands:  2 eigenvalues not converged
     c_bands:  3 eigenvalues not converged
     c_bands:  1 eigenvalues not converged
     c_bands:  1 eigenvalues not converged
     c_bands:  1 eigenvalues not converged
     c_bands:  1 eigenvalues not converged
     c_bands:  5 eigenvalues not converged
     c_bands:  1 eigenvalues not converged
     c_bands:  4 eigenvalues not converged
     c_bands:  1 eigenvalues not converged
     c_bands:  1 eigenvalues not converged
     c_bands:  1 eigenvalues not converged
     c_bands:  4 eigenvalues not converged
     c_bands:  2 eigenvalues not converged
     c_bands:  1 eigenvalues not converged
     c_bands:  3 eigenvalues not converged
     c_bands:  1 eigenvalues not converged
     ethr =  1.00E-02,  avg # of iterations = 19.1

[...]

     total energy              =    -821.67050883 Ry
     Harris-Foulkes estimate   =    -821.67050883 Ry
     estimated scf accuracy    <          3.3E-12 Ry

     iteration # 47     ecut=    50.00 Ry     beta=0.60
     Davidson diagonalization with overlap
     ethr =  1.00E-13,  avg # of iterations =  1.0

     End of self-consistent calculation

     Number of k-points >= 100: set verbosity='high' to print the bands.

     the Fermi energy is    15.9909 ev

!    total energy              =    -821.67050883 Ry
     Harris-Foulkes estimate   =    -821.67050883 Ry
     estimated scf accuracy    <          9.0E-13 Ry

     The total energy is the sum of the following terms:

     one-electron contribution =    -190.42490919 Ry
     hartree contribution      =     134.17800026 Ry
     xc contribution           =    -117.38218876 Ry
     ewald contribution        =    -648.04047013 Ry
     smearing contrib. (-TS)   =      -0.00094100 Ry

     convergence has been achieved in  47 iterations

     Forces acting on atoms (Ry/au):

     atom    1 type  2   force =    -0.00000000   -0.00000599    0.00000000
     atom    2 type  2   force =     0.00000000    0.00000514   -0.00000000
     atom    3 type  1   force =     0.00000000    0.00001521   -0.00000000
     atom    4 type  1   force =    -0.00000000   -0.00001273    0.00000000
     atom    5 type  2   force =     0.00000000    0.00000030   -0.00000000
     atom    6 type  1   force =     0.00000000    0.00001289   -0.00000000
     atom    7 type  1   force =    -0.00000000   -0.00001482    0.00000000

     Total force =     0.000029     Total SCF correction =     0.000003

     entering subroutine stress ...

          total   stress  (Ry/bohr**3)                   (kbar)     P=   -1.03
  -0.00000711  -0.00000000   0.00000000         -1.05     -0.00      0.00
  -0.00000000  -0.00000687   0.00000000         -0.00     -1.01      0.00
  -0.00000000   0.00000000  -0.00000711         -0.00      0.00     -1.05

     General routines

     Parallel routines

   This run was terminated on:  20: 1:42   8May2018

   JOB DONE.