     Program PWSCF v.6.0 (svn rev. 13079) starts on  1May2018 at 16:16: 0

     Current dimensions of program PWSCF are:
     Max number of different atomic species (ntypx) = 10
     Max number of k-points (npk) =  40000
     Max angular momentum in pseudopotentials (lmaxx) =  3

     Subspace diagonalization in iterative solution of the eigenvalue problem:
     a serial algorithm will be used

     bravais-lattice index     =            0
     lattice parameter (alat)  =       1.8897  a.u.
     unit-cell volume          =     586.6735 (a.u.)^3
     number of atoms/cell      =            4
     number of atomic types    =            2
     number of electrons       =        50.00
     number of Kohn-Sham states=           30
     kinetic-energy cutoff     =      50.0000  Ry
     charge density cutoff     =     500.0000  Ry
     convergence threshold     =      1.0E-10
     mixing beta               =       0.6000
     number of iterations used =            8  plain     mixing
     Exchange-correlation      = SLA  PW   PBE  PBE ( 1  4  3  4 0 0)
     nstep                     =           50

     celldm(1)=   1.889726  celldm(2)=   0.000000  celldm(3)=   0.000000
     celldm(4)=   0.000000  celldm(5)=   0.000000  celldm(6)=   0.000000

     crystal axes: (cart. coord. in units of alat)
               a(1) = (  -3.516063   0.000000   0.000000 )
               a(2) = (   0.000000   0.000000   3.516063 )
               a(3) = (   0.000000   7.032126   0.000000 )

     reciprocal axes: (cart. coord. in units 2 pi/alat)
               b(1) = ( -0.284409  0.000000  0.000000 )
               b(2) = (  0.000000 -0.000000  0.284409 )
               b(3) = (  0.000000  0.142205 -0.000000 )

     PseudoPot. # 1 for Nb read from file:
     ./Nb.pbe-nsp-van.UPF
     MD5 check sum: 0a22fc7fb0ba19a08ca5db297a5d2854
     Pseudo is Ultrasoft + core correction, Zval = 13.0
     Generated by new atomic code, or converted to UPF format
     Using radial grid of  887 points,  6 beta functions with:
                l(1) =   0
                l(2) =   0
                l(3) =   1
                l(4) =   1
                l(5) =   2
                l(6) =   2
     Q(r) pseudized with  6 coefficients,  rinner =    1.000   1.000   1.000
                                                       1.000   1.000

     PseudoPot. # 2 for Ti read from file:
     ./Ti.pbe-sp-van_ak.UPF
     MD5 check sum: f98fea3e8887528921fefa5636a534ca
     Pseudo is Ultrasoft, Zval = 12.0
     Generated by new atomic code, or converted to UPF format
     Using radial grid of  851 points,  6 beta functions with:
                l(1) =   0
                l(2) =   0
                l(3) =   1
                l(4) =   1
                l(5) =   2
                l(6) =   2
     Q(r) pseudized with  8 coefficients,  rinner =    1.000   1.000   1.000
                                                       1.000   1.000

     atomic species   valence    mass     pseudopotential
        Nb            13.00    92.90638     Nb( 1.00)
        Ti            12.00    47.86700     Ti( 1.00)

     16 Sym. Ops., with inversion, found ( 8 have fractional translation)

   Cartesian axes

     site n.     atom                  positions (alat units)
         1           Ti  tau(   1) = (  -1.7580316   1.7580316   1.7580316  )
         2           Ti  tau(   2) = (  -3.5160633   3.5160633   3.5160633  )
         3           Nb  tau(   3) = (  -1.7580316   5.2740949   1.7580316  )
         4           Nb  tau(   4) = (  -3.5160633   7.0321265   3.5160633  )

     number of k points=   225  Marzari-Vanderbilt smearing, width (Ry)=  0.0200

     Number of k-points >= 100: set verbosity='high' to print them.

     Initial potential from superposition of free atoms

     starting charge   47.99445, renormalised to   50.00000
     Starting wfc are   46 randomized atomic wfcs

     Self-consistent Calculation

     iteration #  1     ecut=    50.00 Ry     beta=0.60
     Davidson diagonalization with overlap
     ethr =  1.00E-02,  avg # of iterations =  3.9

     total energy              =    -440.33972283 Ry
     Harris-Foulkes estimate   =    -473.21400859 Ry
     estimated scf accuracy    <      40.64852274 Ry

[...]

     iteration # 30     ecut=    50.00 Ry     beta=0.60
     Davidson diagonalization with overlap
     c_bands:  1 eigenvalues not converged
     ethr =  2.61E-08,  avg # of iterations =  4.5

[...]

     End of self-consistent calculation

     Number of k-points >= 100: set verbosity='high' to print the bands.

     the Fermi energy is    12.1767 ev

!    total energy              =    -469.07039434 Ry
     Harris-Foulkes estimate   =    -469.07039434 Ry
     estimated scf accuracy    <          3.7E-11 Ry

     The total energy is the sum of the following terms:

     one-electron contribution =    -151.04225970 Ry
     hartree contribution      =      89.65294047 Ry
     xc contribution           =     -65.24310735 Ry
     ewald contribution        =    -342.43826210 Ry
     smearing contrib. (-TS)   =       0.00029434 Ry

     convergence has been achieved in  40 iterations

     Forces acting on atoms (Ry/au):

     atom    1 type  2   force =     0.00000000   -0.02172649    0.00000000
     atom    2 type  2   force =     0.00000000    0.02172649    0.00000000
     atom    3 type  1   force =    -0.00000000    0.01975552    0.00000000
     atom    4 type  1   force =     0.00000000   -0.01975552    0.00000000

     Total force =     0.041529     Total SCF correction =     0.000017

     entering subroutine stress ...

          total   stress  (Ry/bohr**3)                   (kbar)     P= -199.79
  -0.00133140   0.00000000   0.00000000       -195.86      0.00      0.00
   0.00000000  -0.00141172   0.00000000          0.00   -207.67      0.00
   0.00000000   0.00000000  -0.00133140          0.00      0.00   -195.86

     BFGS Geometry Optimization

     number of scf cycles    =   1
     number of bfgs steps    =   0

     enthalpy new            =    -469.0703943381 Ry

     new trust radius        =       0.1709688892 bohr
     new conv_thr            =            1.0E-10 Ry

     new unit-cell volume =    528.91844 a.u.^3 (    78.37763 Ang^3 )

CELL_PARAMETERS (alat=  1.88972599)
  -3.399030557   0.000000000   0.000000000
   0.000000000   0.000000000   3.399030557
   0.000000000   6.783941006   0.000000000

ATOMIC_POSITIONS (angstrom)
Ti      -1.699515279   1.684893860   1.699515279
Ti      -3.399030557   3.403061895   3.399030557
Nb      -1.699515279   5.098040965   1.699515279
Nb      -3.399030557   6.773855795   3.399030557

     NEW-OLD atomic charge density approx. for the potential
     extrapolated charge   44.75927, renormalised to   50.00000

[...]

     enthalpy old            =    -469.0703943381 Ry
     enthalpy new            =    -469.1367840237 Ry

     CASE: enthalpy_new < enthalpy_old

[...]

     Threshold (ethr) on eigenvalues was too large:
     Diagonalizing with lowered threshold

     Davidson diagonalization with overlap
     ethr =  1.25E-08,  avg # of iterations =  1.2

[...]

     Total force =     0.000015     Total SCF correction =     0.000003
     SCF correction compared to forces is large: reduce conv_thr to get better values

[...]

     small trust_radius: resetting bfgs history

[...]

     number of scf cycles    =  17
     number of bfgs steps    =  16

     enthalpy old            =    -469.1624425213 Ry
     enthalpy new            =    -469.1624425224 Ry

     CASE: enthalpy_new < enthalpy_old

     Message from routine bfgs:
     history already reset at previous step: stopping
     small trust_radius: resetting bfgs history

     new trust radius        =       0.0000157385 bohr
     new conv_thr            =            1.0E-12 Ry

     new unit-cell volume =    476.60083 a.u.^3 (    70.62496 Ang^3 )

[...]

ATOMIC_POSITIONS (angstrom)
Ti      -1.646630881   1.581788360   1.646630881
Ti      -3.293261762   3.302114870   3.293261762
Nb      -1.646630881   4.910158788   1.646630881
Nb      -3.293261762   6.485615416   3.293261762

     NEW-OLD atomic charge density approx. for the potential
     extrapolated charge   50.00036, renormalised to   50.00000

[...]

     Threshold (ethr) on eigenvalues was too large:
     Diagonalizing with lowered threshold

     Davidson diagonalization with overlap
     ethr =  2.80E-11,  avg # of iterations =  1.0

[...]

     Total force =     0.000006     Total SCF correction =     0.000002
     SCF correction compared to forces is large: reduce conv_thr to get better values

[...]

     bfgs converged in  18 scf cycles and  17 bfgs steps
     (criteria: energy <  1.0E-10, force <  1.0E-05, cell <  1.0E-03)

     End of BFGS Geometry Optimization

     Final enthalpy =    -469.1624425226 Ry
Begin final coordinates
     new unit-cell volume =    476.60083 a.u.^3 (    70.62496 Ang^3 )

CELL_PARAMETERS (alat=  1.88972599)
  -3.293261762   0.000000000   0.000000000
   0.000000000   0.000000000   3.293261762
   0.000000000   6.511870974   0.000000000

ATOMIC_POSITIONS (angstrom)
Ti      -1.646630881   1.581788360   1.646630881
Ti      -3.293261762   3.302114870   3.293261762
Nb      -1.646630881   4.910158788   1.646630881
Nb      -3.293261762   6.485615416   3.293261762
End final coordinates

     A final scf calculation at the relaxed structure.
     The G-vectors are recalculated for the final unit cell
     Results may differ from those at the preceding step.

   Info: using nr1, nr2, nr3 values from input

   Info: using nr1, nr2, nr3 values from input

     bravais-lattice index     =            0
     lattice parameter (alat)  =       1.8897  a.u.
     unit-cell volume          =     476.6008 (a.u.)^3
     number of atoms/cell      =            4
     number of atomic types    =            2
     number of electrons       =        50.00
     number of Kohn-Sham states=           30
     kinetic-energy cutoff     =      50.0000  Ry
     charge density cutoff     =     500.0000  Ry
     convergence threshold     =      1.0E-12
     mixing beta               =       0.6000
     number of iterations used =            8  plain     mixing
     Exchange-correlation      = SLA  PW   PBE  PBE ( 1  4  3  4 0 0)

     celldm(1)=   1.889726  celldm(2)=   0.000000  celldm(3)=   0.000000
     celldm(4)=   0.000000  celldm(5)=   0.000000  celldm(6)=   0.000000

     crystal axes: (cart. coord. in units of alat)
               a(1) = (  -3.293262   0.000000   0.000000 )
               a(2) = (   0.000000   0.000000   3.293262 )
               a(3) = (   0.000000   6.511871   0.000000 )

     reciprocal axes: (cart. coord. in units 2 pi/alat)
               b(1) = ( -0.303650  0.000000  0.000000 )
               b(2) = (  0.000000 -0.000000  0.303650 )
               b(3) = (  0.000000  0.153566 -0.000000 )

     PseudoPot. # 1 for Nb read from file:
     ./Nb.pbe-nsp-van.UPF
     MD5 check sum: 0a22fc7fb0ba19a08ca5db297a5d2854
     Pseudo is Ultrasoft + core correction, Zval = 13.0
     Generated by new atomic code, or converted to UPF format
     Using radial grid of  887 points,  6 beta functions with:
                l(1) =   0
                l(2) =   0
                l(3) =   1
                l(4) =   1
                l(5) =   2
                l(6) =   2
     Q(r) pseudized with  6 coefficients,  rinner =    1.000   1.000   1.000
                                                       1.000   1.000

     PseudoPot. # 2 for Ti read from file:
     ./Ti.pbe-sp-van_ak.UPF
     MD5 check sum: f98fea3e8887528921fefa5636a534ca
     Pseudo is Ultrasoft, Zval = 12.0
     Generated by new atomic code, or converted to UPF format
     Using radial grid of  851 points,  6 beta functions with:
                l(1) =   0
                l(2) =   0
                l(3) =   1
                l(4) =   1
                l(5) =   2
                l(6) =   2
     Q(r) pseudized with  8 coefficients,  rinner =    1.000   1.000   1.000
                                                       1.000   1.000

     atomic species   valence    mass     pseudopotential
        Nb            13.00    92.90638     Nb( 1.00)
        Ti            12.00    47.86700     Ti( 1.00)

     16 Sym. Ops., with inversion, found ( 8 have fractional translation)

   Cartesian axes

     site n.     atom                  positions (alat units)
         1           Ti  tau(   1) = (  -1.6466310   1.5817885   1.6466310  )
         2           Ti  tau(   2) = (  -3.2932620   3.3021151   3.2932620  )
         3           Nb  tau(   3) = (  -1.6466310   4.9101592   1.6466310  )
         4           Nb  tau(   4) = (  -3.2932620   6.4856159   3.2932620  )

     number of k points=   225  Marzari-Vanderbilt smearing, width (Ry)=  0.0200

     Number of k-points >= 100: set verbosity='high' to print them.

     Initial potential from superposition of free atoms

     starting charge   47.99445, renormalised to   50.00000
     Starting wfc are   46 randomized atomic wfcs

     Self-consistent Calculation

     iteration #  1     ecut=    50.00 Ry     beta=0.60
     Davidson diagonalization with overlap
     c_bands:  1 eigenvalues not converged
     ethr =  1.00E-06,  avg # of iterations = 12.5

[...]

     total energy              =    -469.16199882 Ry
     Harris-Foulkes estimate   =    -469.16199882 Ry
     estimated scf accuracy    <          1.8E-12 Ry

     iteration # 27     ecut=    50.00 Ry     beta=0.60
     Davidson diagonalization with overlap
     ethr =  1.00E-13,  avg # of iterations =  1.0

     End of self-consistent calculation

     Number of k-points >= 100: set verbosity='high' to print the bands.

     the Fermi energy is    15.6353 ev

!    total energy              =    -469.16199882 Ry
     Harris-Foulkes estimate   =    -469.16199882 Ry
     estimated scf accuracy    <          4.3E-13 Ry

     The total energy is the sum of the following terms:

     one-electron contribution =    -116.24409196 Ry
     hartree contribution      =      79.40515207 Ry
     xc contribution           =     -65.95820257 Ry
     ewald contribution        =    -366.36467016 Ry
     smearing contrib. (-TS)   =      -0.00018619 Ry

     convergence has been achieved in  27 iterations

     Forces acting on atoms (Ry/au):

     atom    1 type  2   force =     0.00000000   -0.00000033    0.00000000
     atom    2 type  2   force =     0.00000000    0.00000033    0.00000000
     atom    3 type  1   force =     0.00000000    0.00002112    0.00000000
     atom    4 type  1   force =     0.00000000   -0.00002112    0.00000000

     Total force =     0.000030     Total SCF correction =     0.000002

     entering subroutine stress ...

          total   stress  (Ry/bohr**3)                   (kbar)     P=   -0.86
  -0.00000598   0.00000000   0.00000000         -0.88      0.00      0.00
   0.00000000  -0.00000559   0.00000000          0.00     -0.82      0.00
   0.00000000   0.00000000  -0.00000598          0.00      0.00     -0.88

     General routines

     Parallel routines

   This run was terminated on:  19:44: 4   1May2018

   JOB DONE.