     Program PWSCF v.6.3MaX starts on 26Jan2020 at 21: 8:52

     R & G space division:  proc/nbgrp/npool/nimage =       4
     Waiting for input...
     Reading input from standard input

     Current dimensions of program PWSCF are:
     Max number of different atomic species (ntypx) = 10
     Max number of k-points (npk) =  40000
     Max angular momentum in pseudopotentials (lmaxx) =  3
     Message from routine iosys:
     minimal I/O required, wf_collect reset to FALSE

     Subspace diagonalization in iterative solution of the eigenvalue problem:
     a serial algorithm will be used

     bravais-lattice index     =            0
     lattice parameter (alat)  =       1.8897  a.u.
     unit-cell volume          =     808.3427 (a.u.)^3
     number of atoms/cell      =            6
     number of atomic types    =            2
     number of electrons       =        74.00
     number of Kohn-Sham states=           44
     kinetic-energy cutoff     =      40.0000  Ry
     charge density cutoff     =     400.0000  Ry
     convergence threshold     =      1.0E-10
     mixing beta               =       0.6000
     number of iterations used =            8  plain     mixing
     Exchange-correlation      = SLA PW PBE PBE ( 1  4  3  4 0 0)
     nstep                     =           50

     celldm(1)=   1.889726  celldm(2)=   0.000000  celldm(3)=   0.000000
     celldm(4)=   0.000000  celldm(5)=   0.000000  celldm(6)=   0.000000

     crystal axes: (cart. coord. in units of alat)
               a(1) = (   3.045004   0.000000   4.972461 )
               a(2) = (  -1.522502   2.637051   4.972461 )
               a(3) = (  -1.522502  -2.637051   4.972461 )

     reciprocal axes: (cart. coord. in units 2 pi/alat)
               b(1) = (  0.218938  0.000000  0.067036 )
               b(2) = ( -0.109469  0.189606  0.067036 )
               b(3) = ( -0.109469 -0.189606  0.067036 )

     PseudoPot. # 1 for Nb read from file:
     ./Nb.pbe-nsp-van.UPF
     MD5 check sum: 0a22fc7fb0ba19a08ca5db297a5d2854
     Pseudo is Ultrasoft + core correction, Zval = 13.0
     Generated by new atomic code, or converted to UPF format
     Using radial grid of  887 points,  6 beta functions with:
                l(1) =   0
                l(2) =   0
                l(3) =   1
                l(4) =   1
                l(5) =   2
                l(6) =   2
     Q(r) pseudized with  6 coefficients,  rinner =    1.000   1.000   1.000
                                                       1.000   1.000

     PseudoPot. # 2 for Ti read from file:
     ./Ti.pbe-sp-van_ak.UPF
     MD5 check sum: f98fea3e8887528921fefa5636a534ca
     Pseudo is Ultrasoft, Zval = 12.0
     Generated by new atomic code, or converted to UPF format
     Using radial grid of  851 points,  6 beta functions with:
                l(1) =   0
                l(2) =   0
                l(3) =   1
                l(4) =   1
                l(5) =   2
                l(6) =   2
     Q(r) pseudized with  8 coefficients,  rinner =    1.000   1.000   1.000
                                                       1.000   1.000

     atomic species   valence    mass     pseudopotential
        Nb            13.00    92.90638     Nb( 1.00)
        Ti            12.00    47.86700     Ti( 1.00)

      6 Sym. Ops. (no inversion) found ( 4 have fractional translation)

   Cartesian axes

     site n.     atom                  positions (alat units)
         1           Ti  tau(   1) = (   0.0000000   0.0000000   9.9449228  )
         2           Ti  tau(   2) = (   0.0000015  -1.7580350   7.4586921  )
         3           Ti  tau(   3) = (   0.0000000   0.0000000  14.9173841  )
         4           Nb  tau(   4) = (   1.5225036   0.8790162   7.4586921  )
         5           Ti  tau(   5) = (   0.0000000   0.0000000   4.9724614  )
         6           Nb  tau(   6) = (  -1.5225006   0.8790162   7.4586921  )

     number of k points=   189  Marzari-Vanderbilt smearing, width (Ry)=  0.0200

     Number of k-points >= 100: set verbosity='high' to print them.

     Initial potential from superposition of free atoms

     starting charge   69.99436, renormalised to   74.00000
     Starting wfcs are   66 randomized atomic wfcs

     Self-consistent Calculation

     iteration #  1     ecut=    40.00 Ry     beta= 0.60
     Davidson diagonalization with overlap
     ethr =  1.00E-02,  avg # of iterations =  3.4

     total energy              =    -694.51279096 Ry
     Harris-Foulkes estimate   =    -704.65116834 Ry
     estimated scf accuracy    <      12.94174124 Ry

[...]

     iteration # 32     ecut=    40.00 Ry     beta= 0.60
     Davidson diagonalization with overlap
     c_bands:  1 eigenvalues not converged
     ethr =  8.78E-12,  avg # of iterations =  5.3

[...]

     End of self-consistent calculation

     Number of k-points >= 100: set verbosity='high' to print the bands.

     the Fermi energy is    12.9849 ev

!    total energy              =    -702.38629592 Ry
     Harris-Foulkes estimate   =    -702.38629592 Ry
     estimated scf accuracy    <          6.5E-11 Ry

     The total energy is the sum of the following terms:

     one-electron contribution =    -231.23608500 Ry
     hartree contribution      =     137.69602337 Ry
     xc contribution           =     -94.33332751 Ry
     ewald contribution        =    -514.50797732 Ry
     smearing contrib. (-TS)   =      -0.00492945 Ry

     convergence has been achieved in  37 iterations

     Forces acting on atoms (cartesian axes, Ry/au):

     atom    1 type  2   force =     0.00142236    0.00082120    0.00000000
     atom    2 type  2   force =     0.00000000    0.00000000    0.00000000
     atom    3 type  2   force =     0.00000000   -0.00164240    0.00000000
     atom    4 type  1   force =     0.00000000    0.00000000    0.00407371
     atom    5 type  2   force =    -0.00142236    0.00082120    0.00000000
     atom    6 type  1   force =     0.00000000    0.00000000   -0.00407371

     Total force =     0.006425     Total SCF correction =     0.000002

     Computing stress (Cartesian axis) and pressure

          total   stress  (Ry/bohr**3)                   (kbar)     P= -130.92
  -0.00089554   0.00000000  -0.00000000       -131.74      0.00     -0.00
   0.00000000  -0.00089554   0.00000000          0.00   -131.74      0.00
   0.00000000  -0.00000000  -0.00087882          0.00     -0.00   -129.28

     BFGS Geometry Optimization

     number of scf cycles    =   1
     number of bfgs steps    =   0

     enthalpy new            =    -702.3862959152 Ry

     new trust radius        =       0.1273070102 bohr
     new conv_thr            =            1.0E-10 Ry

     new unit-cell volume =    755.57945 a.u.^3 (   111.96532 Ang^3 )
     density =      5.59539 g/cm^3

CELL_PARAMETERS (alat=  1.88972599)
   2.976830997   0.000000000   4.863213695
  -1.488415499   2.578011452   4.863213695
  -1.488415499  -2.578011452   4.863213695

ATOMIC_POSITIONS (angstrom)
Ti       0.000735830   0.000424831   9.726427390
Ti       0.000001489  -1.718675161   7.294820542
Ti      -0.000000000  -0.000849663  14.589641084
Nb       1.488416988   0.859336291   7.296928892
Ti      -0.000735830   0.000424831   4.863213695
Nb      -1.488414010   0.859336291   7.292712192

     NEW-OLD atomic charge density approx. for the potential
     extrapolated charge   69.11218, renormalised to   74.00000

[...]

     enthalpy old            =    -702.3862959152 Ry
     enthalpy new            =    -702.4222158512 Ry

     CASE: enthalpy_new < enthalpy_old

[...]

     Threshold (ethr) on eigenvalues was too large:
     Diagonalizing with lowered threshold

     Davidson diagonalization with overlap
     ethr =  1.93E-08,  avg # of iterations =  5.5

[...]

     WARNING: bfgs curvature condition failed, Theta= 0.846
     new trust radius        =       0.0049315368 bohr
     new conv_thr            =            1.0E-10 Ry

[...]

     Total force =     0.000014     Total SCF correction =     0.000005
     SCF correction compared to forces is large: reduce conv_thr to get better values

[...]

     small trust_radius: resetting bfgs history

[...]

     number of scf cycles    =  31
     number of bfgs steps    =  30

     enthalpy old            =    -702.4422185691 Ry
     enthalpy new            =    -702.4422185693 Ry

     CASE: enthalpy_new < enthalpy_old

     Message from routine bfgs:
     history already reset at previous step: stopping
     small trust_radius: resetting bfgs history

     new trust radius        =       0.0000018811 bohr
     new conv_thr            =            1.0E-12 Ry

     new unit-cell volume =    711.76462 a.u.^3 (   105.47263 Ang^3 )
     density =      5.93983 g/cm^3

[...]

ATOMIC_POSITIONS (angstrom)
Ti      -0.279301262  -0.161254648   9.309668816
Ti       0.000001477  -1.705027890   6.982251612
Ti       0.000000000   0.322509296  13.964503225
Nb       1.476598099   0.852512666   7.322933919
Ti       0.279301262  -0.161254648   4.654834408
Nb      -1.476595145   0.852512666   6.641569306

     NEW-OLD atomic charge density approx. for the potential
     extrapolated charge   74.00007, renormalised to   74.00000

[...]

     Threshold (ethr) on eigenvalues was too large:
     Diagonalizing with lowered threshold

     Davidson diagonalization with overlap
     ethr =  5.19E-13,  avg # of iterations =  3.9

[...]

     Total force =     0.000000     Total SCF correction =     0.000000
     SCF correction compared to forces is large: reduce conv_thr to get better values

[...]

     bfgs converged in  32 scf cycles and  31 bfgs steps
     (criteria: energy <  1.0E-10 Ry, force <  1.0E-05Ry/Bohr, cell <  1.0E-03kbar)

     End of BFGS Geometry Optimization

     Final enthalpy =    -702.4422185693 Ry
Begin final coordinates
     new unit-cell volume =    711.76462 a.u.^3 (   105.47263 Ang^3 )
     density =      5.93983 g/cm^3

CELL_PARAMETERS (alat=  1.88972599)
   2.953193244  -0.000000000   4.654834408
  -1.476596622   2.557540557   4.654834408
  -1.476596622  -2.557540557   4.654834408

ATOMIC_POSITIONS (angstrom)
Ti      -0.279301262  -0.161254648   9.309668816
Ti       0.000001477  -1.705027890   6.982251612
Ti       0.000000000   0.322509296  13.964503225
Nb       1.476598099   0.852512666   7.322933919
Ti       0.279301262  -0.161254648   4.654834408
Nb      -1.476595145   0.852512666   6.641569306
End final coordinates

     A final scf calculation at the relaxed structure.
     The G-vectors are recalculated for the final unit cell
     Results may differ from those at the preceding step.

     bravais-lattice index     =            0
     lattice parameter (alat)  =       1.8897  a.u.
     unit-cell volume          =     711.7646 (a.u.)^3
     number of atoms/cell      =            6
     number of atomic types    =            2
     number of electrons       =        74.00
     number of Kohn-Sham states=           44
     kinetic-energy cutoff     =      40.0000  Ry
     charge density cutoff     =     400.0000  Ry
     convergence threshold     =      1.0E-12
     mixing beta               =       0.6000
     number of iterations used =            8  plain     mixing
     Exchange-correlation      = SLA PW PBE PBE ( 1  4  3  4 0 0)

     celldm(1)=   1.889726  celldm(2)=   0.000000  celldm(3)=   0.000000
     celldm(4)=   0.000000  celldm(5)=   0.000000  celldm(6)=   0.000000

     crystal axes: (cart. coord. in units of alat)
               a(1) = (   2.953193  -0.000000   4.654834 )
               a(2) = (  -1.476597   2.557541   4.654834 )
               a(3) = (  -1.476597  -2.557541   4.654834 )

     reciprocal axes: (cart. coord. in units 2 pi/alat)
               b(1) = (  0.225744 -0.000000  0.071610 )
               b(2) = ( -0.112872  0.195500  0.071610 )
               b(3) = ( -0.112872 -0.195500  0.071610 )

     PseudoPot. # 1 for Nb read from file:
     ./Nb.pbe-nsp-van.UPF
     MD5 check sum: 0a22fc7fb0ba19a08ca5db297a5d2854
     Pseudo is Ultrasoft + core correction, Zval = 13.0
     Generated by new atomic code, or converted to UPF format
     Using radial grid of  887 points,  6 beta functions with:
                l(1) =   0
                l(2) =   0
                l(3) =   1
                l(4) =   1
                l(5) =   2
                l(6) =   2
     Q(r) pseudized with  6 coefficients,  rinner =    1.000   1.000   1.000
                                                       1.000   1.000

     PseudoPot. # 2 for Ti read from file:
     ./Ti.pbe-sp-van_ak.UPF
     MD5 check sum: f98fea3e8887528921fefa5636a534ca
     Pseudo is Ultrasoft, Zval = 12.0
     Generated by new atomic code, or converted to UPF format
     Using radial grid of  851 points,  6 beta functions with:
                l(1) =   0
                l(2) =   0
                l(3) =   1
                l(4) =   1
                l(5) =   2
                l(6) =   2
     Q(r) pseudized with  8 coefficients,  rinner =    1.000   1.000   1.000
                                                       1.000   1.000

     atomic species   valence    mass     pseudopotential
        Nb            13.00    92.90638     Nb( 1.00)
        Ti            12.00    47.86700     Ti( 1.00)

      6 Sym. Ops. (no inversion) found ( 4 have fractional translation)

   Cartesian axes

     site n.     atom                  positions (alat units)
         1           Ti  tau(   1) = (  -0.2793013  -0.1612547   9.3096695  )
         2           Ti  tau(   2) = (   0.0000015  -1.7050280   6.9822521  )
         3           Ti  tau(   3) = (   0.0000000   0.3225093  13.9645043  )
         4           Nb  tau(   4) = (   1.4765982   0.8525127   7.3229345  )
         5           Ti  tau(   5) = (   0.2793013  -0.1612547   4.6548348  )
         6           Nb  tau(   6) = (  -1.4765953   0.8525127   6.6415698  )

     number of k points=   189  Marzari-Vanderbilt smearing, width (Ry)=  0.0200

     Number of k-points >= 100: set verbosity='high' to print them.

     Initial potential from superposition of free atoms

     starting charge   69.99436, renormalised to   74.00000
     Starting wfcs are   66 randomized atomic wfcs

     Self-consistent Calculation

[...]

     iteration # 14     ecut=    40.00 Ry     beta= 0.60
     Davidson diagonalization with overlap
     c_bands:  1 eigenvalues not converged
     ethr =  5.38E-06,  avg # of iterations =  5.0

[...]

     total energy              =    -702.43718127 Ry
     Harris-Foulkes estimate   =    -702.43718127 Ry
     estimated scf accuracy    <          9.7E-12 Ry

     iteration # 27     ecut=    40.00 Ry     beta= 0.60
     Davidson diagonalization with overlap
     ethr =  1.00E-13,  avg # of iterations =  1.0

     End of self-consistent calculation

     Number of k-points >= 100: set verbosity='high' to print the bands.

     the Fermi energy is    14.9303 ev

!    total energy              =    -702.43718127 Ry
     Harris-Foulkes estimate   =    -702.43718127 Ry
     estimated scf accuracy    <          5.8E-13 Ry

     The total energy is the sum of the following terms:

     one-electron contribution =    -201.47097201 Ry
     hartree contribution      =     129.15184362 Ry
     xc contribution           =     -94.96770511 Ry
     ewald contribution        =    -535.14911105 Ry
     smearing contrib. (-TS)   =      -0.00123672 Ry

     convergence has been achieved in  27 iterations

     Forces acting on atoms (cartesian axes, Ry/au):

     atom    1 type  2   force =     0.00008658    0.00004999   -0.00000000
     atom    2 type  2   force =     0.00000000    0.00000000    0.00000000
     atom    3 type  2   force =    -0.00000000   -0.00009998    0.00000000
     atom    4 type  1   force =    -0.00000000    0.00000000    0.00008775
     atom    5 type  2   force =    -0.00008658    0.00004999    0.00000000
     atom    6 type  1   force =     0.00000000    0.00000000   -0.00008775

     Total force =     0.000213     Total SCF correction =     0.000001

     Computing stress (Cartesian axis) and pressure

          total   stress  (Ry/bohr**3)                   (kbar)     P=   -5.12
  -0.00003134  -0.00000000   0.00000000         -4.61     -0.00      0.00
  -0.00000000  -0.00003134   0.00000000         -0.00     -4.61      0.00
   0.00000000   0.00000000  -0.00004184          0.00      0.00     -6.15

     General routines

     Parallel routines

      38h

   This run was terminated on:   2:47:36  27Jan2020

   JOB DONE.