     Program PWSCF v.6.0 (svn rev. 13079) starts on 30Apr2018 at 10:51:22

     Current dimensions of program PWSCF are:
     Max number of different atomic species (ntypx) = 10
     Max number of k-points (npk) =  40000
     Max angular momentum in pseudopotentials (lmaxx) =  3

     Subspace diagonalization in iterative solution of the eigenvalue problem:
     a serial algorithm will be used

     bravais-lattice index     =            0
     lattice parameter (alat)  =       1.8897  a.u.
     unit-cell volume          =     538.8952 (a.u.)^3
     number of atoms/cell      =            4
     number of atomic types    =            2
     number of electrons       =        50.00
     number of Kohn-Sham states=           30
     kinetic-energy cutoff     =      40.0000  Ry
     charge density cutoff     =     400.0000  Ry
     convergence threshold     =      1.0E-10
     mixing beta               =       0.6000
     number of iterations used =            8  plain     mixing
     Exchange-correlation      = SLA  PW   PBE  PBE ( 1  4  3  4 0 0)
     nstep                     =           50

     celldm(1)=   1.889726  celldm(2)=   0.000000  celldm(3)=   0.000000
     celldm(4)=   0.000000  celldm(5)=   0.000000  celldm(6)=   0.000000

     crystal axes: (cart. coord. in units of alat)
               a(1) = (   1.522502  -2.637051  -4.972461 )
               a(2) = (  -1.522502   2.637051  -4.972461 )
               a(3) = (   3.045004   0.000000   4.972461 )

     reciprocal axes: (cart. coord. in units 2 pi/alat)
               b(1) = (  0.164203 -0.094803 -0.100554 )
               b(2) = (  0.164203  0.284409 -0.100554 )
               b(3) = (  0.328407  0.189606  0.000000 )

     PseudoPot. # 1 for Nb read from file:
     ./Nb.pbe-nsp-van.UPF
     MD5 check sum: 0a22fc7fb0ba19a08ca5db297a5d2854
     Pseudo is Ultrasoft + core correction, Zval = 13.0
     Generated by new atomic code, or converted to UPF format
     Using radial grid of  887 points,  6 beta functions with:
                l(1) =   0
                l(2) =   0
                l(3) =   1
                l(4) =   1
                l(5) =   2
                l(6) =   2
     Q(r) pseudized with  6 coefficients,  rinner =    1.000   1.000   1.000
                                                       1.000   1.000

     PseudoPot. # 2 for Ti read from file:
     ./Ti.pbe-sp-van_ak.UPF
     MD5 check sum: f98fea3e8887528921fefa5636a534ca
     Pseudo is Ultrasoft, Zval = 12.0
     Generated by new atomic code, or converted to UPF format
     Using radial grid of  851 points,  6 beta functions with:
                l(1) =   0
                l(2) =   0
                l(3) =   1
                l(4) =   1
                l(5) =   2
                l(6) =   2
     Q(r) pseudized with  8 coefficients,  rinner =    1.000   1.000   1.000
                                                       1.000   1.000

     atomic species   valence    mass     pseudopotential
        Nb            13.00    92.90638     Nb( 1.00)
        Ti            12.00    47.86700     Ti( 1.00)

      2 Sym. Ops. (no inversion) found

   Cartesian axes

     site n.     atom                  positions (alat units)
         1           Ti  tau(   1) = (   3.0450042   0.0000000  -4.9724614  )
         2           Ti  tau(   2) = (   1.5225036   0.8790162  -2.4862307  )
         3           Nb  tau(   3) = (   3.0450042   0.0000000   0.0000000  )
         4           Nb  tau(   4) = (   3.0450058  -1.7580350  -2.4862307  )

     number of k points=   595  Marzari-Vanderbilt smearing, width (Ry)=  0.0200

     Number of k-points >= 100: set verbosity='high' to print them.

     Initial potential from superposition of free atoms

     starting charge   47.99445, renormalised to   50.00000
     Starting wfc are   46 randomized atomic wfcs

     Self-consistent Calculation

     iteration #  1     ecut=    40.00 Ry     beta=0.60
     Davidson diagonalization with overlap
     ethr =  1.00E-02,  avg # of iterations =  3.1

     total energy              =    -459.96373133 Ry
     Harris-Foulkes estimate   =    -470.86414509 Ry
     estimated scf accuracy    <      13.79170493 Ry

[...]

     End of self-consistent calculation

     Number of k-points >= 100: set verbosity='high' to print the bands.

     the Fermi energy is    13.8357 ev

!    total energy              =    -469.09389481 Ry
     Harris-Foulkes estimate   =    -469.09389481 Ry
     estimated scf accuracy    <          4.3E-11 Ry

     The total energy is the sum of the following terms:

     one-electron contribution =    -136.30112547 Ry
     hartree contribution      =      85.07449640 Ry
     xc contribution           =     -65.49779266 Ry
     ewald contribution        =    -352.36535258 Ry
     smearing contrib. (-TS)   =      -0.00412051 Ry

     convergence has been achieved in  27 iterations

     Forces acting on atoms (Ry/au):

     atom    1 type  2   force =     0.00077215   -0.00044580   -0.00095544
     atom    2 type  2   force =    -0.00077186    0.00044563    0.00095587
     atom    3 type  1   force =    -0.00365985    0.00211301    0.00559243
     atom    4 type  1   force =     0.00365955   -0.00211284   -0.00559286

     Total force =     0.010084     Total SCF correction =     0.000005

     entering subroutine stress ...

          total   stress  (Ry/bohr**3)                   (kbar)     P= -124.86
  -0.00088910  -0.00003520   0.00001638       -130.79     -5.18      2.41
  -0.00003520  -0.00092975  -0.00000946         -5.18   -136.77     -1.39
   0.00001638  -0.00000946  -0.00072748          2.41     -1.39   -107.02

     BFGS Geometry Optimization

     number of scf cycles    =   1
     number of bfgs steps    =   0

     enthalpy new            =    -469.0938948088 Ry

     new trust radius        =       0.1079990735 bohr
     new conv_thr            =            1.0E-10 Ry

     new unit-cell volume =    505.30859 a.u.^3 (    74.87901 Ang^3 )

CELL_PARAMETERS (alat=  1.88972599)
   1.488944544  -2.575920236  -4.880779725
  -1.493017975   2.578272033  -4.883274187
   2.979357905  -0.003855571   4.883274187

ATOMIC_POSITIONS (angstrom)
Ti       2.975683997  -0.001734439  -4.881275904
Ti       1.486470802   0.858063262  -2.440101331
Nb       2.975427759  -0.001586500   0.004151736
Nb       2.979744709  -1.720356533  -2.442255231

     NEW-OLD atomic charge density approx. for the potential

     Check: negative/imaginary core charge=   -0.000001    0.000000
     extrapolated charge   46.80993, renormalised to   50.00000

[...]

     iteration #  1     ecut=    40.00 Ry     beta=0.60
     Davidson diagonalization with overlap
     c_bands:  1 eigenvalues not converged
     c_bands:  1 eigenvalues not converged
     c_bands:  1 eigenvalues not converged
     c_bands:  1 eigenvalues not converged
     c_bands:  1 eigenvalues not converged
     c_bands:  1 eigenvalues not converged
     c_bands:  1 eigenvalues not converged
     c_bands:  1 eigenvalues not converged
     c_bands:  1 eigenvalues not converged
     c_bands:  1 eigenvalues not converged
     c_bands:  2 eigenvalues not converged
     c_bands:  1 eigenvalues not converged
     c_bands:  1 eigenvalues not converged
     c_bands:  1 eigenvalues not converged
     c_bands:  1 eigenvalues not converged
     c_bands:  1 eigenvalues not converged
     c_bands:  1 eigenvalues not converged
     c_bands:  1 eigenvalues not converged
     c_bands:  1 eigenvalues not converged
     c_bands:  1 eigenvalues not converged
     c_bands:  1 eigenvalues not converged
     c_bands:  1 eigenvalues not converged
     c_bands:  1 eigenvalues not converged
     c_bands:  1 eigenvalues not converged
     c_bands:  2 eigenvalues not converged
     c_bands:  1 eigenvalues not converged
     c_bands:  1 eigenvalues not converged
     c_bands:  2 eigenvalues not converged
     c_bands:  1 eigenvalues not converged
     c_bands:  2 eigenvalues not converged
     c_bands:  1 eigenvalues not converged
     c_bands:  3 eigenvalues not converged
     c_bands:  1 eigenvalues not converged
     c_bands:  1 eigenvalues not converged
     c_bands:  1 eigenvalues not converged
     c_bands:  1 eigenvalues not converged
     c_bands:  1 eigenvalues not converged
     c_bands:  1 eigenvalues not converged
     c_bands:  1 eigenvalues not converged
     c_bands:  2 eigenvalues not converged
     c_bands:  2 eigenvalues not converged
     c_bands:  1 eigenvalues not converged
     c_bands:  2 eigenvalues not converged
     c_bands:  2 eigenvalues not converged
     c_bands:  1 eigenvalues not converged
     c_bands:  1 eigenvalues not converged
     c_bands:  2 eigenvalues not converged
     c_bands:  1 eigenvalues not converged
     c_bands:  1 eigenvalues not converged
     c_bands:  4 eigenvalues not converged
     c_bands:  1 eigenvalues not converged
     c_bands:  1 eigenvalues not converged
     c_bands:  1 eigenvalues not converged
     c_bands:  4 eigenvalues not converged
     c_bands:  1 eigenvalues not converged
     c_bands:  1 eigenvalues not converged
     c_bands:  1 eigenvalues not converged
     c_bands:  1 eigenvalues not converged
     c_bands:  1 eigenvalues not converged
     c_bands:  2 eigenvalues not converged
[...]
     c_bands:  1 eigenvalues not converged
     c_bands:  1 eigenvalues not converged
     c_bands:  1 eigenvalues not converged
     c_bands:  1 eigenvalues not converged
     c_bands:  2 eigenvalues not converged
     c_bands:  1 eigenvalues not converged
     c_bands:  1 eigenvalues not converged
     c_bands:  1 eigenvalues not converged
     c_bands:  1 eigenvalues not converged
     c_bands:  1 eigenvalues not converged
     c_bands:  1 eigenvalues not converged
     c_bands:  1 eigenvalues not converged
     c_bands:  1 eigenvalues not converged
     c_bands:  1 eigenvalues not converged
     c_bands:  1 eigenvalues not converged
     ethr =  1.00E-06,  avg # of iterations = 17.6

[...]

     enthalpy old            =    -469.0938948088 Ry
     enthalpy new            =    -469.1155479533 Ry

     CASE: enthalpy_new < enthalpy_old

[...]

     NEW-OLD atomic charge density approx. for the potential

     Check: negative/imaginary core charge=   -0.000001    0.000000
     extrapolated charge   50.07898, renormalised to   50.00000

[...]

     NEW-OLD atomic charge density approx. for the potential
     extrapolated charge   50.00103, renormalised to   50.00000

[...]

     WARNING: bfgs curvature condition failed, Theta= 0.807
     new trust radius        =       0.0114596846 bohr
     new conv_thr            =            1.0E-10 Ry

[...]

     WARNING: bfgs curvature condition failed, Theta= 0.982
     new trust radius        =       0.0195575468 bohr
     new conv_thr            =            1.0E-10 Ry

[...]

     Threshold (ethr) on eigenvalues was too large:
     Diagonalizing with lowered threshold

     Davidson diagonalization with overlap
     ethr =  3.18E-08,  avg # of iterations =  3.3

[...]

     Total force =     0.000042     Total SCF correction =     0.000007
     SCF correction compared to forces is large: reduce conv_thr to get better values

[...]

     small trust_radius: resetting bfgs history

[...]

     number of scf cycles    =  34
     number of bfgs steps    =  33

     enthalpy old            =    -469.1369427607 Ry
     enthalpy new            =    -469.1369427628 Ry

     CASE: enthalpy_new < enthalpy_old

     Message from routine bfgs:
     history already reset at previous step: stopping
     small trust_radius: resetting bfgs history

     new trust radius        =       0.0000137283 bohr
     new conv_thr            =            1.0E-12 Ry

     new unit-cell volume =    480.37643 a.u.^3 (    71.18444 Ang^3 )

[...]

ATOMIC_POSITIONS (angstrom)
Ti       2.887513376  -0.078515128  -4.806188669
Ti       1.615469397   0.655899874  -2.385241596
Nb       2.848240468  -0.055840905   0.008523405
Nb       3.290688383  -1.899879936  -2.394205944

     NEW-OLD atomic charge density approx. for the potential
     extrapolated charge   50.00010, renormalised to   50.00000

[...]

     Threshold (ethr) on eigenvalues was too large:
     Diagonalizing with lowered threshold

     Davidson diagonalization with overlap
     ethr =  1.33E-12,  avg # of iterations =  4.0

[...]

     bfgs converged in  35 scf cycles and  34 bfgs steps
     (criteria: energy <  1.0E-10, force <  1.0E-05, cell <  1.0E-03)

     End of BFGS Geometry Optimization

     Final enthalpy =    -469.1369427634 Ry
Begin final coordinates
     new unit-cell volume =    480.37643 a.u.^3 (    71.18444 Ang^3 )

CELL_PARAMETERS (alat=  1.88972599)
   1.656265250  -2.544836865  -4.793612697
  -1.635946012   2.533105548  -4.805747797
   3.011706600  -0.150218116   4.805747797

ATOMIC_POSITIONS (angstrom)
Ti       2.887513376  -0.078515128  -4.806188669
Ti       1.615469397   0.655899874  -2.385241596
Nb       2.848240468  -0.055840905   0.008523405
Nb       3.290688383  -1.899879936  -2.394205944
End final coordinates

     A final scf calculation at the relaxed structure.
     The G-vectors are recalculated for the final unit cell
     Results may differ from those at the preceding step.

   Info: using nr1, nr2, nr3 values from input

   Info: using nr1, nr2, nr3 values from input

     bravais-lattice index     =            0
     lattice parameter (alat)  =       1.8897  a.u.
     unit-cell volume          =     480.3764 (a.u.)^3
     number of atoms/cell      =            4
     number of atomic types    =            2
     number of electrons       =        50.00
     number of Kohn-Sham states=           30
     kinetic-energy cutoff     =      40.0000  Ry
     charge density cutoff     =     400.0000  Ry
     convergence threshold     =      1.0E-12
     mixing beta               =       0.6000
     number of iterations used =            8  plain     mixing
     Exchange-correlation      = SLA  PW   PBE  PBE ( 1  4  3  4 0 0)

     celldm(1)=   1.889726  celldm(2)=   0.000000  celldm(3)=   0.000000
     celldm(4)=   0.000000  celldm(5)=   0.000000  celldm(6)=   0.000000

     crystal axes: (cart. coord. in units of alat)
               a(1) = (   1.656265  -2.544837  -4.793613 )
               a(2) = (  -1.635946   2.533106  -4.805748 )
               a(3) = (   3.011707  -0.150218   4.805748 )

     reciprocal axes: (cart. coord. in units 2 pi/alat)
               b(1) = (  0.160872 -0.092879 -0.103720 )
               b(2) = (  0.181921  0.314627 -0.104173 )
               b(3) = (  0.342386  0.221982  0.000453 )

     PseudoPot. # 1 for Nb read from file:
     ./Nb.pbe-nsp-van.UPF
     MD5 check sum: 0a22fc7fb0ba19a08ca5db297a5d2854
     Pseudo is Ultrasoft + core correction, Zval = 13.0
     Generated by new atomic code, or converted to UPF format
     Using radial grid of  887 points,  6 beta functions with:
                l(1) =   0
                l(2) =   0
                l(3) =   1
                l(4) =   1
                l(5) =   2
                l(6) =   2
     Q(r) pseudized with  6 coefficients,  rinner =    1.000   1.000   1.000
                                                       1.000   1.000

     PseudoPot. # 2 for Ti read from file:
     ./Ti.pbe-sp-van_ak.UPF
     MD5 check sum: f98fea3e8887528921fefa5636a534ca
     Pseudo is Ultrasoft, Zval = 12.0
     Generated by new atomic code, or converted to UPF format
     Using radial grid of  851 points,  6 beta functions with:
                l(1) =   0
                l(2) =   0
                l(3) =   1
                l(4) =   1
                l(5) =   2
                l(6) =   2
     Q(r) pseudized with  8 coefficients,  rinner =    1.000   1.000   1.000
                                                       1.000   1.000

     atomic species   valence    mass     pseudopotential
        Nb            13.00    92.90638     Nb( 1.00)
        Ti            12.00    47.86700     Ti( 1.00)

      2 Sym. Ops. (no inversion) found

   Cartesian axes

     site n.     atom                  positions (alat units)
         1           Ti  tau(   1) = (   2.8875136  -0.0785151  -4.8061890  )
         2           Ti  tau(   2) = (   1.6154695   0.6558999  -2.3852418  )
         3           Nb  tau(   3) = (   2.8482407  -0.0558409   0.0085234  )
         4           Nb  tau(   4) = (   3.2906886  -1.8998801  -2.3942061  )

     number of k points=   595  Marzari-Vanderbilt smearing, width (Ry)=  0.0200

     Number of k-points >= 100: set verbosity='high' to print them.

     Initial potential from superposition of free atoms

     starting charge   47.99445, renormalised to   50.00000
     Starting wfc are   46 randomized atomic wfcs

     Self-consistent Calculation

[...]

     iteration # 16     ecut=    40.00 Ry     beta=0.60
     Davidson diagonalization with overlap
     c_bands:  1 eigenvalues not converged
     c_bands:  1 eigenvalues not converged
     c_bands:  1 eigenvalues not converged
     c_bands:  1 eigenvalues not converged
     c_bands:  1 eigenvalues not converged
     c_bands:  1 eigenvalues not converged
     c_bands:  2 eigenvalues not converged
     c_bands:  1 eigenvalues not converged
     ethr =  1.69E-06,  avg # of iterations =  6.5

[...]

     total energy              =    -469.13481440 Ry
     Harris-Foulkes estimate   =    -469.13481440 Ry
     estimated scf accuracy    <          5.5E-12 Ry

     iteration # 29     ecut=    40.00 Ry     beta=0.60
     Davidson diagonalization with overlap
     ethr =  1.00E-13,  avg # of iterations =  1.0

     End of self-consistent calculation

     Number of k-points >= 100: set verbosity='high' to print the bands.

     the Fermi energy is    15.6740 ev

!    total energy              =    -469.13481440 Ry
     Harris-Foulkes estimate   =    -469.13481440 Ry
     estimated scf accuracy    <          1.4E-13 Ry

     The total energy is the sum of the following terms:

     one-electron contribution =    -116.98977113 Ry
     hartree contribution      =      79.45007074 Ry
     xc contribution           =     -65.91847218 Ry
     ewald contribution        =    -365.67632779 Ry
     smearing contrib. (-TS)   =      -0.00031403 Ry

     convergence has been achieved in  29 iterations

     Forces acting on atoms (Ry/au):

     atom    1 type  2   force =     0.00003276   -0.00001892   -0.00014649
     atom    2 type  2   force =    -0.00003271    0.00001888    0.00014652
     atom    3 type  1   force =     0.00000185   -0.00000107   -0.00005797
     atom    4 type  1   force =    -0.00000191    0.00000110    0.00005794

     Total force =     0.000229     Total SCF correction =     0.000000

     entering subroutine stress ...

          total   stress  (Ry/bohr**3)                   (kbar)     P=   -2.68
  -0.00001046  -0.00001238  -0.00000014         -1.54     -1.82     -0.02
  -0.00001238  -0.00002475   0.00000008         -1.82     -3.64      0.01
  -0.00000014   0.00000008  -0.00001947         -0.02      0.01     -2.86

     General routines

     Parallel routines

   This run was terminated on:   3: 9: 7   1May2018

   JOB DONE.