     Program PWSCF v.6.3MaX starts on 27Feb2020 at 20:19:48

     R & G space division:  proc/nbgrp/npool/nimage =       4
     Waiting for input...
     Reading input from standard input

     Current dimensions of program PWSCF are:
     Max number of different atomic species (ntypx) = 10
     Max number of k-points (npk) =  40000
     Max angular momentum in pseudopotentials (lmaxx) =  3
     Message from routine iosys:
     minimal I/O required, wf_collect reset to FALSE

     Subspace diagonalization in iterative solution of the eigenvalue problem:
     a serial algorithm will be used

     bravais-lattice index     =            0
     lattice parameter (alat)  =       1.8897  a.u.
     unit-cell volume          =     880.0102 (a.u.)^3
     number of atoms/cell      =            6
     number of atomic types    =            2
     number of electrons       =        77.00
     number of Kohn-Sham states=           47
     kinetic-energy cutoff     =      50.0000  Ry
     charge density cutoff     =     500.0000  Ry
     convergence threshold     =      1.0E-10
     mixing beta               =       0.6000
     number of iterations used =            8  plain     mixing
     Exchange-correlation      = SLA PW PBE PBE ( 1  4  3  4 0 0)
     nstep                     =           50

     celldm(1)=   1.889726  celldm(2)=   0.000000  celldm(3)=   0.000000
     celldm(4)=   0.000000  celldm(5)=   0.000000  celldm(6)=   0.000000

     crystal axes: (cart. coord. in units of alat)
               a(1) = (   5.274095   1.758031   1.758031 )
               a(2) = (   1.758031  -5.274095   1.758031 )
               a(3) = (  -1.758031   1.758031  -5.274095 )

     reciprocal axes: (cart. coord. in units 2 pi/alat)
               b(1) = (  0.189606  0.047402 -0.047402 )
               b(2) = (  0.094803 -0.189606 -0.094803 )
               b(3) = (  0.094803 -0.047402 -0.237008 )

     PseudoPot. # 1 for Nb read from file:
     ./Nb.pbe-nsp-van.UPF
     MD5 check sum: 0a22fc7fb0ba19a08ca5db297a5d2854
     Pseudo is Ultrasoft + core correction, Zval = 13.0
     Generated by new atomic code, or converted to UPF format
     Using radial grid of  887 points,  6 beta functions with:
                l(1) =   0
                l(2) =   0
                l(3) =   1
                l(4) =   1
                l(5) =   2
                l(6) =   2
     Q(r) pseudized with  6 coefficients,  rinner =    1.000   1.000   1.000
                                                       1.000   1.000

     PseudoPot. # 2 for Ti read from file:
     ./Ti.pbe-sp-van_ak.UPF
     MD5 check sum: f98fea3e8887528921fefa5636a534ca
     Pseudo is Ultrasoft, Zval = 12.0
     Generated by new atomic code, or converted to UPF format
     Using radial grid of  851 points,  6 beta functions with:
                l(1) =   0
                l(2) =   0
                l(3) =   1
                l(4) =   1
                l(5) =   2
                l(6) =   2
     Q(r) pseudized with  8 coefficients,  rinner =    1.000   1.000   1.000
                                                       1.000   1.000

     atomic species   valence    mass     pseudopotential
        Nb            13.00    92.90638     Nb( 1.00)
        Ti            12.00    47.86700     Ti( 1.00)

      4 Sym. Ops., with inversion, found

   Cartesian axes

     site n.     atom                  positions (alat units)
         1           Ti  tau(   1) = (   3.5160633  -3.5160633   0.0000000  )
         2           Nb  tau(   2) = (   3.5160633   0.0000000   0.0000000  )
         3           Nb  tau(   3) = (   1.7580316  -1.7580316  -1.7580316  )
         4           Nb  tau(   4) = (   5.2740949  -1.7580316   1.7580316  )
         5           Nb  tau(   5) = (   5.2740949  -1.7580316  -1.7580316  )
         6           Nb  tau(   6) = (   0.0000000   0.0000000  -3.5160633  )

     number of k points=   476  Marzari-Vanderbilt smearing, width (Ry)=  0.0200

     Number of k-points >= 100: set verbosity='high' to print them.

     Initial potential from superposition of free atoms

     starting charge   75.98629, renormalised to   77.00000
     Starting wfcs are   75 randomized atomic wfcs

     Self-consistent Calculation

     iteration #  1     ecut=    50.00 Ry     beta= 0.60
     Davidson diagonalization with overlap
     ethr =  1.00E-02,  avg # of iterations =  2.0

     total energy              =    -686.16011552 Ry
     Harris-Foulkes estimate   =    -708.44626939 Ry
     estimated scf accuracy    <      27.94190653 Ry

[...]

     negative rho (up, down):  7.508E-04 0.000E+00

[...]

     negative rho (up, down):  1.835E-01 0.000E+00

[...]

     iteration # 34     ecut=    50.00 Ry     beta= 0.60
     Davidson diagonalization with overlap
     c_bands:  1 eigenvalues not converged
     c_bands:  1 eigenvalues not converged
     ethr =  7.55E-06,  avg # of iterations =  4.7

[...]

     End of self-consistent calculation

     Number of k-points >= 100: set verbosity='high' to print the bands.

     the Fermi energy is    13.6515 ev

!    total energy              =    -706.18003603 Ry
     Harris-Foulkes estimate   =    -706.18003603 Ry
     estimated scf accuracy    <          5.5E-11 Ry

     The total energy is the sum of the following terms:

     one-electron contribution =    -172.97407573 Ry
     hartree contribution      =     113.85877457 Ry
     xc contribution           =    -105.62300216 Ry
     ewald contribution        =    -541.44184490 Ry
     smearing contrib. (-TS)   =       0.00011220 Ry

     convergence has been achieved in  45 iterations

     Forces acting on atoms (cartesian axes, Ry/au):

     atom    1 type  2   force =     0.00000000    0.00000000    0.00000000
     atom    2 type  1   force =     0.00610824   -0.00908459    0.00908459
     atom    3 type  1   force =    -0.00610824    0.00908459   -0.00908459
     atom    4 type  1   force =     0.01475303    0.00062165   -0.00062165
     atom    5 type  1   force =    -0.00000000   -0.00000000    0.00000000
     atom    6 type  1   force =    -0.01475303   -0.00062165    0.00062165

     Total force =     0.029010     Total SCF correction =     0.000011

     Computing stress (Cartesian axis) and pressure

          total   stress  (Ry/bohr**3)                   (kbar)     P= -215.20
  -0.00147389   0.00001063  -0.00001063       -216.82      1.56     -1.56
   0.00001063  -0.00145743   0.00000037          1.56   -214.40      0.05
  -0.00001063   0.00000037  -0.00145743         -1.56      0.05   -214.40

     BFGS Geometry Optimization

     number of scf cycles    =   1
     number of bfgs steps    =   0

     enthalpy new            =    -706.1800360279 Ry

     new trust radius        =       0.2186254573 bohr
     new conv_thr            =            1.0E-10 Ry

     new unit-cell volume =    786.94460 a.u.^3 (   116.61316 Ang^3 )
     density =      7.29642 g/cm^3

CELL_PARAMETERS (alat=  1.88972599)
   5.079758972   1.695393941   1.692590708
   1.691384169  -5.081445392   1.693460743
  -1.691384169   1.693460743  -5.081445392

ATOMIC_POSITIONS (angstrom)
Ti       3.385571571  -3.387018050  -0.000966599
Nb       3.389616664  -0.003696886   0.003696886
Nb       1.690142308  -1.688893822  -1.699090827
Nb       5.086344041  -1.692239473   1.692239473
Nb       5.079758972  -1.692590708  -1.695393941
Nb      -0.006585069  -0.000351235  -3.387633414

     NEW-OLD atomic charge density approx. for the potential
     extrapolated charge   68.01371, renormalised to   77.00000

[...]

     enthalpy old            =    -706.1800360279 Ry
     enthalpy new            =    -706.2876069228 Ry

     CASE: enthalpy_new < enthalpy_old

[...]

     WARNING: bfgs curvature condition failed, Theta= 0.946
     new trust radius        =       0.0127470052 bohr
     new conv_thr            =            1.0E-10 Ry

[...]

     iteration #  1     ecut=    50.00 Ry     beta= 0.60
     Davidson diagonalization with overlap
     c_bands:  1 eigenvalues not converged
     ethr =  1.00E-06,  avg # of iterations =  5.2

[...]

     Threshold (ethr) on eigenvalues was too large:
     Diagonalizing with lowered threshold

     Davidson diagonalization with overlap
     ethr =  2.03E-08,  avg # of iterations =  3.2

[...]

     small trust_radius: resetting bfgs history

[...]

     number of scf cycles    =  22
     number of bfgs steps    =  21

     enthalpy old            =    -706.3151000583 Ry
     enthalpy new            =    -706.3151000600 Ry

     CASE: enthalpy_new < enthalpy_old

     Message from routine bfgs:
     history already reset at previous step: stopping
     small trust_radius: resetting bfgs history

     new trust radius        =       0.0000135100 bohr
     new conv_thr            =            1.0E-12 Ry

     new unit-cell volume =    726.19297 a.u.^3 (   107.61069 Ang^3 )
     density =      7.90682 g/cm^3

[...]

ATOMIC_POSITIONS (angstrom)
Ti       3.272386976  -3.277243682  -0.004212914
Nb       3.290152111  -0.022535613   0.022535613
Nb       1.652116612  -1.584487346  -1.696969249
Nb       4.975847009  -1.617637846   1.617637846
Nb       4.942268723  -1.607022960  -1.674433636
Nb      -0.033578286   0.010614886  -3.292071481

     NEW-OLD atomic charge density approx. for the potential
     extrapolated charge   76.99977, renormalised to   77.00000

[...]

     Threshold (ethr) on eigenvalues was too large:
     Diagonalizing with lowered threshold

     Davidson diagonalization with overlap
     ethr =  3.85E-12,  avg # of iterations =  2.7

[...]

     bfgs converged in  23 scf cycles and  22 bfgs steps
     (criteria: energy <  1.0E-10 Ry, force <  1.0E-05Ry/Bohr, cell <  1.0E-03kbar)

     End of BFGS Geometry Optimization

     Final enthalpy =    -706.3151000608 Ry
Begin final coordinates
     new unit-cell volume =    726.19297 a.u.^3 (   107.61069 Ang^3 )
     density =      7.90682 g/cm^3

CELL_PARAMETERS (alat=  1.88972599)
   4.942268723   1.674433636   1.607022960
   1.602505230  -4.947464404   1.666007808
  -1.602505230   1.666007808  -4.947464404

ATOMIC_POSITIONS (angstrom)
Ti       3.272386976  -3.277243682  -0.004212914
Nb       3.290152111  -0.022535613   0.022535613
Nb       1.652116612  -1.584487346  -1.696969249
Nb       4.975847009  -1.617637846   1.617637846
Nb       4.942268723  -1.607022960  -1.674433636
Nb      -0.033578286   0.010614886  -3.292071481
End final coordinates

     A final scf calculation at the relaxed structure.
     The G-vectors are recalculated for the final unit cell
     Results may differ from those at the preceding step.

     bravais-lattice index     =            0
     lattice parameter (alat)  =       1.8897  a.u.
     unit-cell volume          =     726.1930 (a.u.)^3
     number of atoms/cell      =            6
     number of atomic types    =            2
     number of electrons       =        77.00
     number of Kohn-Sham states=           47
     kinetic-energy cutoff     =      50.0000  Ry
     charge density cutoff     =     500.0000  Ry
     convergence threshold     =      1.0E-12
     mixing beta               =       0.6000
     number of iterations used =            8  plain     mixing
     Exchange-correlation      = SLA PW PBE PBE ( 1  4  3  4 0 0)

     celldm(1)=   1.889726  celldm(2)=   0.000000  celldm(3)=   0.000000
     celldm(4)=   0.000000  celldm(5)=   0.000000  celldm(6)=   0.000000

     crystal axes: (cart. coord. in units of alat)
               a(1) = (   4.942269   1.674434   1.607023 )
               a(2) = (   1.602505  -4.947464   1.666008 )
               a(3) = (  -1.602505   1.666008  -4.947464 )

     reciprocal axes: (cart. coord. in units 2 pi/alat)
               b(1) = (  0.201670  0.048866 -0.048866 )
               b(2) = (  0.101863 -0.203292 -0.101450 )
               b(3) = (  0.099807 -0.052584 -0.252159 )

     PseudoPot. # 1 for Nb read from file:
     ./Nb.pbe-nsp-van.UPF
     MD5 check sum: 0a22fc7fb0ba19a08ca5db297a5d2854
     Pseudo is Ultrasoft + core correction, Zval = 13.0
     Generated by new atomic code, or converted to UPF format
     Using radial grid of  887 points,  6 beta functions with:
                l(1) =   0
                l(2) =   0
                l(3) =   1
                l(4) =   1
                l(5) =   2
                l(6) =   2
     Q(r) pseudized with  6 coefficients,  rinner =    1.000   1.000   1.000
                                                       1.000   1.000

     PseudoPot. # 2 for Ti read from file:
     ./Ti.pbe-sp-van_ak.UPF
     MD5 check sum: f98fea3e8887528921fefa5636a534ca
     Pseudo is Ultrasoft, Zval = 12.0
     Generated by new atomic code, or converted to UPF format
     Using radial grid of  851 points,  6 beta functions with:
                l(1) =   0
                l(2) =   0
                l(3) =   1
                l(4) =   1
                l(5) =   2
                l(6) =   2
     Q(r) pseudized with  8 coefficients,  rinner =    1.000   1.000   1.000
                                                       1.000   1.000

     atomic species   valence    mass     pseudopotential
        Nb            13.00    92.90638     Nb( 1.00)
        Ti            12.00    47.86700     Ti( 1.00)

      4 Sym. Ops., with inversion, found

   Cartesian axes

     site n.     atom                  positions (alat units)
         1           Ti  tau(   1) = (   3.2723872  -3.2772439  -0.0042129  )
         2           Nb  tau(   2) = (   3.2901524  -0.0225356   0.0225356  )
         3           Nb  tau(   3) = (   1.6521167  -1.5844875  -1.6969694  )
         4           Nb  tau(   4) = (   4.9758474  -1.6176380   1.6176380  )
         5           Nb  tau(   5) = (   4.9422691  -1.6070231  -1.6744338  )
         6           Nb  tau(   6) = (  -0.0335783   0.0106149  -3.2920717  )

     number of k points=   476  Marzari-Vanderbilt smearing, width (Ry)=  0.0200

     Number of k-points >= 100: set verbosity='high' to print them.

     Initial potential from superposition of free atoms

     starting charge   75.98629, renormalised to   77.00000
     Starting wfcs are   75 randomized atomic wfcs

     Self-consistent Calculation

[...]

     total energy              =    -706.31432567 Ry
     Harris-Foulkes estimate   =    -706.31432567 Ry
     estimated scf accuracy    <          5.3E-12 Ry

     iteration # 25     ecut=    50.00 Ry     beta= 0.60
     Davidson diagonalization with overlap
     ethr =  1.00E-13,  avg # of iterations =  1.0

     End of self-consistent calculation

     Number of k-points >= 100: set verbosity='high' to print the bands.

     the Fermi energy is    17.1646 ev

!    total energy              =    -706.31432567 Ry
     Harris-Foulkes estimate   =    -706.31432567 Ry
     estimated scf accuracy    <          5.9E-13 Ry

     The total energy is the sum of the following terms:

     one-electron contribution =    -121.86837186 Ry
     hartree contribution      =      99.36886979 Ry
     xc contribution           =    -106.74299348 Ry
     ewald contribution        =    -577.07181748 Ry
     smearing contrib. (-TS)   =      -0.00001264 Ry

     convergence has been achieved in  25 iterations

     Forces acting on atoms (cartesian axes, Ry/au):

     atom    1 type  2   force =    -0.00000000   -0.00000000    0.00000000
     atom    2 type  1   force =    -0.00000280    0.00000309   -0.00000309
     atom    3 type  1   force =     0.00000280   -0.00000309    0.00000309
     atom    4 type  1   force =     0.00000757    0.00000010   -0.00000010
     atom    5 type  1   force =     0.00000000    0.00000000   -0.00000000
     atom    6 type  1   force =    -0.00000757   -0.00000010    0.00000010

     Total force =     0.000013     Total SCF correction =     0.000001

     Computing stress (Cartesian axis) and pressure

          total   stress  (Ry/bohr**3)                   (kbar)     P=   -1.48
  -0.00001003   0.00000008  -0.00000008         -1.47      0.01     -0.01
   0.00000008  -0.00001011  -0.00000009          0.01     -1.49     -0.01
  -0.00000008  -0.00000009  -0.00001011         -0.01     -0.01     -1.49

     General routines

     Parallel routines

      10h

   This run was terminated on:   6:30:43  28Feb2020

   JOB DONE.