     Program PWSCF v.6.0 (svn rev. 13079) starts on 26Apr2018 at 12:26: 8

     Current dimensions of program PWSCF are:
     Max number of different atomic species (ntypx) = 10
     Max number of k-points (npk) =  40000
     Max angular momentum in pseudopotentials (lmaxx) =  3

     Subspace diagonalization in iterative solution of the eigenvalue problem:
     a serial algorithm will be used

     bravais-lattice index     =            0
     lattice parameter (alat)  =       1.8897  a.u.
     unit-cell volume          =     293.3367 (a.u.)^3
     number of atoms/cell      =            2
     number of atomic types    =            2
     number of electrons       =        25.00
     number of Kohn-Sham states=           17
     kinetic-energy cutoff     =      50.0000  Ry
     charge density cutoff     =     500.0000  Ry
     convergence threshold     =      1.0E-10
     mixing beta               =       0.6000
     number of iterations used =            8  plain     mixing
     Exchange-correlation      = SLA  PW   PBE  PBE ( 1  4  3  4 0 0)
     nstep                     =           50

     celldm(1)=   1.889726  celldm(2)=   0.000000  celldm(3)=   0.000000
     celldm(4)=   0.000000  celldm(5)=   0.000000  celldm(6)=   0.000000

     crystal axes: (cart. coord. in units of alat)
               a(1) = (  -3.516063   0.000000   0.000000 )
               a(2) = (   0.000000   0.000000   3.516063 )
               a(3) = (   0.000000   3.516063   0.000000 )

     reciprocal axes: (cart. coord. in units 2 pi/alat)
               b(1) = ( -0.284409  0.000000  0.000000 )
               b(2) = (  0.000000 -0.000000  0.284409 )
               b(3) = (  0.000000  0.284409 -0.000000 )

     PseudoPot. # 1 for Nb read from file:
     ./Nb.pbe-nsp-van.UPF
     MD5 check sum: 0a22fc7fb0ba19a08ca5db297a5d2854
     Pseudo is Ultrasoft + core correction, Zval = 13.0
     Generated by new atomic code, or converted to UPF format
     Using radial grid of  887 points,  6 beta functions with:
                l(1) =   0
                l(2) =   0
                l(3) =   1
                l(4) =   1
                l(5) =   2
                l(6) =   2
     Q(r) pseudized with  6 coefficients,  rinner =    1.000   1.000   1.000
                                                       1.000   1.000

     PseudoPot. # 2 for Ti read from file:
     ./Ti.pbe-sp-van_ak.UPF
     MD5 check sum: f98fea3e8887528921fefa5636a534ca
     Pseudo is Ultrasoft, Zval = 12.0
     Generated by new atomic code, or converted to UPF format
     Using radial grid of  851 points,  6 beta functions with:
                l(1) =   0
                l(2) =   0
                l(3) =   1
                l(4) =   1
                l(5) =   2
                l(6) =   2
     Q(r) pseudized with  8 coefficients,  rinner =    1.000   1.000   1.000
                                                       1.000   1.000

     atomic species   valence    mass     pseudopotential
        Nb            13.00    92.90638     Nb( 1.00)
        Ti            12.00    47.86700     Ti( 1.00)

     48 Sym. Ops., with inversion, found

   Cartesian axes

     site n.     atom                  positions (alat units)
         1           Ti  tau(   1) = (  -1.7580316   1.7580316   1.7580316  )
         2           Nb  tau(   2) = (  -3.5160633   3.5160633   3.5160633  )

     number of k points=   165  Marzari-Vanderbilt smearing, width (Ry)=  0.0200

     Number of k-points >= 100: set verbosity='high' to print them.

     Initial potential from superposition of free atoms

     starting charge   23.99722, renormalised to   25.00000
     Starting wfc are   23 randomized atomic wfcs

     Self-consistent Calculation

     iteration #  1     ecut=    50.00 Ry     beta=0.60
     Davidson diagonalization with overlap
     ethr =  1.00E-02,  avg # of iterations =  3.0

     total energy              =    -232.68266953 Ry
     Harris-Foulkes estimate   =    -235.11935501 Ry
     estimated scf accuracy    <       3.15104338 Ry

[...]

     End of self-consistent calculation

     Number of k-points >= 100: set verbosity='high' to print the bands.

     the Fermi energy is    12.1970 ev

!    total energy              =    -234.52792503 Ry
     Harris-Foulkes estimate   =    -234.52792503 Ry
     estimated scf accuracy    <          7.5E-11 Ry

     The total energy is the sum of the following terms:

     one-electron contribution =     -75.36797909 Ry
     hartree contribution      =      44.77769452 Ry
     xc contribution           =     -32.62234694 Ry
     ewald contribution        =    -171.31402118 Ry
     smearing contrib. (-TS)   =      -0.00127232 Ry

     convergence has been achieved in  27 iterations

     Forces acting on atoms (Ry/au):

     atom    1 type  2   force =     0.00000000    0.00000000    0.00000000
     atom    2 type  1   force =     0.00000000    0.00000000    0.00000000

     Total force =     0.000000     Total SCF correction =     0.000000

     entering subroutine stress ...

          total   stress  (Ry/bohr**3)                   (kbar)     P= -202.16
  -0.00137428   0.00000000   0.00000000       -202.16      0.00      0.00
   0.00000000  -0.00137428   0.00000000          0.00   -202.16      0.00
   0.00000000   0.00000000  -0.00137428          0.00      0.00   -202.16

     BFGS Geometry Optimization

     number of scf cycles    =   1
     number of bfgs steps    =   0

     enthalpy new            =    -234.5279250250 Ry

     new trust radius        =       0.1176872044 bohr
     new conv_thr            =            1.0E-10 Ry

     new unit-cell volume =    264.12904 a.u.^3 (    39.13989 Ang^3 )

CELL_PARAMETERS (alat=  1.88972599)
  -3.395261402   0.000000000   0.000000000
   0.000000000   0.000000000   3.395261402
   0.000000000   3.395261402   0.000000000

ATOMIC_POSITIONS (angstrom)
Ti      -1.697630701   1.697630701   1.697630701
Nb      -3.395261402   3.395261402   3.395261402

     NEW-OLD atomic charge density approx. for the potential
     extrapolated charge   22.34636, renormalised to   25.00000

[...]

     enthalpy old            =    -234.5279250250 Ry
     enthalpy new            =    -234.5615228608 Ry

     CASE: enthalpy_new < enthalpy_old

[...]

     Threshold (ethr) on eigenvalues was too large:
     Diagonalizing with lowered threshold

     Davidson diagonalization with overlap
     ethr =  6.81E-08,  avg # of iterations =  1.0

[...]

     small trust_radius: resetting bfgs history

[...]

     number of scf cycles    =   7
     number of bfgs steps    =   6

     enthalpy old            =    -234.5755629819 Ry
     enthalpy new            =    -234.5755629819 Ry

     CASE: enthalpy_new < enthalpy_old

     WARNING: bfgs curvature condition failed, Theta= 0.159
     Message from routine bfgs:
     history already reset at previous step: stopping
     small trust_radius: resetting bfgs history

     new trust radius        =       0.0000029989 bohr
     new conv_thr            =            1.0E-12 Ry

     new unit-cell volume =    234.87203 a.u.^3 (    34.80444 Ang^3 )

[...]

ATOMIC_POSITIONS (angstrom)
Ti      -1.632481494   1.632481494   1.632481494
Nb      -3.264962989   3.264962989   3.264962989

     NEW-OLD atomic charge density approx. for the potential
     extrapolated charge   25.00007, renormalised to   25.00000

[...]

     Threshold (ethr) on eigenvalues was too large:
     Diagonalizing with lowered threshold

     Davidson diagonalization with overlap
     ethr =  5.18E-12,  avg # of iterations =  1.9

[...]

     bfgs converged in   8 scf cycles and   7 bfgs steps
     (criteria: energy <  1.0E-10, force <  1.0E-05, cell <  1.0E-03)

     End of BFGS Geometry Optimization

     Final enthalpy =    -234.5755629819 Ry
Begin final coordinates
     new unit-cell volume =    234.87203 a.u.^3 (    34.80444 Ang^3 )

CELL_PARAMETERS (alat=  1.88972599)
  -3.264962989   0.000000000   0.000000000
   0.000000000   0.000000000   3.264962989
   0.000000000   3.264962989   0.000000000

ATOMIC_POSITIONS (angstrom)
Ti      -1.632481494   1.632481494   1.632481494
Nb      -3.264962989   3.264962989   3.264962989
End final coordinates

     A final scf calculation at the relaxed structure.
     The G-vectors are recalculated for the final unit cell
     Results may differ from those at the preceding step.

   Info: using nr1, nr2, nr3 values from input

   Info: using nr1, nr2, nr3 values from input

     bravais-lattice index     =            0
     lattice parameter (alat)  =       1.8897  a.u.
     unit-cell volume          =     234.8720 (a.u.)^3
     number of atoms/cell      =            2
     number of atomic types    =            2
     number of electrons       =        25.00
     number of Kohn-Sham states=           17
     kinetic-energy cutoff     =      50.0000  Ry
     charge density cutoff     =     500.0000  Ry
     convergence threshold     =      1.0E-12
     mixing beta               =       0.6000
     number of iterations used =            8  plain     mixing
     Exchange-correlation      = SLA  PW   PBE  PBE ( 1  4  3  4 0 0)

     celldm(1)=   1.889726  celldm(2)=   0.000000  celldm(3)=   0.000000
     celldm(4)=   0.000000  celldm(5)=   0.000000  celldm(6)=   0.000000

     crystal axes: (cart. coord. in units of alat)
               a(1) = (  -3.264963   0.000000   0.000000 )
               a(2) = (   0.000000   0.000000   3.264963 )
               a(3) = (   0.000000   3.264963   0.000000 )

     reciprocal axes: (cart. coord. in units 2 pi/alat)
               b(1) = ( -0.306282  0.000000  0.000000 )
               b(2) = (  0.000000 -0.000000  0.306282 )
               b(3) = (  0.000000  0.306282 -0.000000 )

     PseudoPot. # 1 for Nb read from file:
     ./Nb.pbe-nsp-van.UPF
     MD5 check sum: 0a22fc7fb0ba19a08ca5db297a5d2854
     Pseudo is Ultrasoft + core correction, Zval = 13.0
     Generated by new atomic code, or converted to UPF format
     Using radial grid of  887 points,  6 beta functions with:
                l(1) =   0
                l(2) =   0
                l(3) =   1
                l(4) =   1
                l(5) =   2
                l(6) =   2
     Q(r) pseudized with  6 coefficients,  rinner =    1.000   1.000   1.000
                                                       1.000   1.000

     PseudoPot. # 2 for Ti read from file:
     ./Ti.pbe-sp-van_ak.UPF
     MD5 check sum: f98fea3e8887528921fefa5636a534ca
     Pseudo is Ultrasoft, Zval = 12.0
     Generated by new atomic code, or converted to UPF format
     Using radial grid of  851 points,  6 beta functions with:
                l(1) =   0
                l(2) =   0
                l(3) =   1
                l(4) =   1
                l(5) =   2
                l(6) =   2
     Q(r) pseudized with  8 coefficients,  rinner =    1.000   1.000   1.000
                                                       1.000   1.000

     atomic species   valence    mass     pseudopotential
        Nb            13.00    92.90638     Nb( 1.00)
        Ti            12.00    47.86700     Ti( 1.00)

     48 Sym. Ops., with inversion, found

   Cartesian axes

     site n.     atom                  positions (alat units)
         1           Ti  tau(   1) = (  -1.6324816   1.6324816   1.6324816  )
         2           Nb  tau(   2) = (  -3.2649632   3.2649632   3.2649632  )

     number of k points=   165  Marzari-Vanderbilt smearing, width (Ry)=  0.0200

     Number of k-points >= 100: set verbosity='high' to print them.

     Initial potential from superposition of free atoms

     starting charge   23.99722, renormalised to   25.00000
     Starting wfc are   23 randomized atomic wfcs

     Self-consistent Calculation

[...]

     total energy              =    -234.57532541 Ry
     Harris-Foulkes estimate   =    -234.57532541 Ry
     estimated scf accuracy    <          1.5E-12 Ry

     iteration # 19     ecut=    50.00 Ry     beta=0.60
     Davidson diagonalization with overlap
     ethr =  1.00E-13,  avg # of iterations =  1.5

     End of self-consistent calculation

     Number of k-points >= 100: set verbosity='high' to print the bands.

     the Fermi energy is    15.9294 ev

!    total energy              =    -234.57532541 Ry
     Harris-Foulkes estimate   =    -234.57532541 Ry
     estimated scf accuracy    <          5.0E-14 Ry

     The total energy is the sum of the following terms:

     one-electron contribution =     -56.08068942 Ry
     hartree contribution      =      38.99468484 Ry
     xc contribution           =     -32.99878215 Ry
     ewald contribution        =    -184.48934747 Ry
     smearing contrib. (-TS)   =      -0.00119122 Ry

     convergence has been achieved in  19 iterations

     Forces acting on atoms (Ry/au):

     atom    1 type  2   force =     0.00000000    0.00000000    0.00000000
     atom    2 type  1   force =     0.00000000    0.00000000    0.00000000

     Total force =     0.000000     Total SCF correction =     0.000000

     entering subroutine stress ...

          total   stress  (Ry/bohr**3)                   (kbar)     P=   -0.75
  -0.00000512   0.00000000   0.00000000         -0.75      0.00      0.00
   0.00000000  -0.00000512   0.00000000          0.00     -0.75      0.00
   0.00000000   0.00000000  -0.00000512          0.00      0.00     -0.75

     General routines

     Parallel routines

   This run was terminated on:  12:47:26  26Apr2018

   JOB DONE.