     Program PWSCF v.6.0 (svn rev. 13079) starts on  7Mar2018 at 16:46:19

     Current dimensions of program PWSCF are:
     Max number of different atomic species (ntypx) = 10
     Max number of k-points (npk) =  40000
     Max angular momentum in pseudopotentials (lmaxx) =  3

     Subspace diagonalization in iterative solution of the eigenvalue problem:
     a serial algorithm will be used

     bravais-lattice index     =            0
     lattice parameter (alat)  =       1.8897  a.u.
     unit-cell volume          =     538.8952 (a.u.)^3
     number of atoms/cell      =            4
     number of atomic types    =            2
     number of electrons       =        51.00
     number of Kohn-Sham states=           31
     kinetic-energy cutoff     =      33.0700  Ry
     charge density cutoff     =     330.7000  Ry
     convergence threshold     =      1.0E-10
     mixing beta               =       0.6000
     number of iterations used =            8  plain     mixing
     Exchange-correlation      = SLA  PW   PBE  PBE ( 1  4  3  4 0 0)
     nstep                     =           50

     celldm(1)=   1.889726  celldm(2)=   0.000000  celldm(3)=   0.000000
     celldm(4)=   0.000000  celldm(5)=   0.000000  celldm(6)=   0.000000

     crystal axes: (cart. coord. in units of alat)
               a(1) = (  -1.522502  -2.637051   0.000000 )
               a(2) = (   3.045004   0.000000   0.000000 )
               a(3) = (   0.000000   0.000000   9.944922 )

     reciprocal axes: (cart. coord. in units 2 pi/alat)
               b(1) = (  0.000000 -0.379211  0.000000 )
               b(2) = (  0.328407 -0.189606  0.000000 )
               b(3) = ( -0.000000  0.000000  0.100554 )

     PseudoPot. # 1 for Nb read from file:
     ./Nb.pbe-nsp-van.UPF
     MD5 check sum: 2636d8d3a061c4aefa0a317108b12435
     Pseudo is Ultrasoft + core correction, Zval = 13.0
     Generated by new atomic code, or converted to UPF format
     Using radial grid of  887 points,  6 beta functions with:
                l(1) =   0
                l(2) =   0
                l(3) =   1
                l(4) =   1
                l(5) =   2
                l(6) =   2
     Q(r) pseudized with  6 coefficients,  rinner =    1.000   1.000   1.000
                                                       1.000   1.000

     PseudoPot. # 2 for Ti read from file:
     ./Ti.pbe-sp-van_ak.UPF
     MD5 check sum: 8e4df49b7f0d34bbd5052bf3f5ea0213
     Pseudo is Ultrasoft, Zval = 12.0
     Generated by new atomic code, or converted to UPF format
     Using radial grid of  851 points,  6 beta functions with:
                l(1) =   0
                l(2) =   0
                l(3) =   1
                l(4) =   1
                l(5) =   2
                l(6) =   2
     Q(r) pseudized with  8 coefficients,  rinner =    1.000   1.000   1.000
                                                       1.000   1.000

     atomic species   valence    mass     pseudopotential
        Nb            13.00    92.90600     Nb( 1.00)
        Ti            12.00    47.86700     Ti( 1.00)

     12 Sym. Ops. (no inversion) found

   Cartesian axes

     site n.     atom                  positions (alat units)
         1           Ti  tau(   1) = (   1.5225021  -2.6370512   4.9724614  )
         2           Nb  tau(   2) = (   0.0000015  -1.7580350   2.4862307  )
         3           Nb  tau(   3) = (   1.5225021  -2.6370512   9.9449228  )
         4           Nb  tau(   4) = (   0.0000015  -1.7580350   7.4586921  )

     number of k points=    81  Marzari-Vanderbilt smearing, width (Ry)=  0.2000
                       cart. coord. in units 2pi/alat
        k(    1) = (   0.0000000   0.0000000   0.0000000), wk =   0.0017778
        k(    2) = (   0.0000000   0.0000000   0.0201108), wk =   0.0035556
        k(    3) = (   0.0000000   0.0000000   0.0402215), wk =   0.0035556
        k(    4) = (   0.0218938  -0.0126404   0.0000000), wk =   0.0106667
        k(    5) = (   0.0218938  -0.0126404   0.0201108), wk =   0.0213333
        k(    6) = (   0.0218938  -0.0126404   0.0402215), wk =   0.0213333
        k(    7) = (   0.0437876  -0.0252808   0.0000000), wk =   0.0106667
        k(    8) = (   0.0437876  -0.0252808   0.0201108), wk =   0.0213333
        k(    9) = (   0.0437876  -0.0252808   0.0402215), wk =   0.0213333
        k(   10) = (   0.0656814  -0.0379211   0.0000000), wk =   0.0106667
        k(   11) = (   0.0656814  -0.0379211   0.0201108), wk =   0.0213333
        k(   12) = (   0.0656814  -0.0379211   0.0402215), wk =   0.0213333
        k(   13) = (   0.0875751  -0.0505615   0.0000000), wk =   0.0106667
        k(   14) = (   0.0875751  -0.0505615   0.0201108), wk =   0.0213333
        k(   15) = (   0.0875751  -0.0505615   0.0402215), wk =   0.0213333
        k(   16) = (   0.1094689  -0.0632019   0.0000000), wk =   0.0106667
        k(   17) = (   0.1094689  -0.0632019   0.0201108), wk =   0.0213333
        k(   18) = (   0.1094689  -0.0632019   0.0402215), wk =   0.0213333
        k(   19) = (   0.1313627  -0.0758423   0.0000000), wk =   0.0106667
        k(   20) = (   0.1313627  -0.0758423   0.0201108), wk =   0.0213333
        k(   21) = (   0.1313627  -0.0758423   0.0402215), wk =   0.0213333
        k(   22) = (   0.1532565  -0.0884827   0.0000000), wk =   0.0106667
        k(   23) = (   0.1532565  -0.0884827   0.0201108), wk =   0.0213333
        k(   24) = (   0.1532565  -0.0884827   0.0402215), wk =   0.0213333
        k(   25) = (   0.0218938  -0.0379211   0.0000000), wk =   0.0106667
        k(   26) = (   0.0218938  -0.0379211   0.0201108), wk =   0.0213333
        k(   27) = (   0.0218938  -0.0379211   0.0402215), wk =   0.0213333
        k(   28) = (   0.0437876  -0.0505615   0.0000000), wk =   0.0213333
        k(   29) = (   0.0437876  -0.0505615   0.0201108), wk =   0.0426667
        k(   30) = (   0.0437876  -0.0505615   0.0402215), wk =   0.0426667
        k(   31) = (   0.0656814  -0.0632019   0.0000000), wk =   0.0213333
        k(   32) = (   0.0656814  -0.0632019   0.0201108), wk =   0.0426667
        k(   33) = (   0.0656814  -0.0632019   0.0402215), wk =   0.0426667
        k(   34) = (   0.0875751  -0.0758423   0.0000000), wk =   0.0213333
        k(   35) = (   0.0875751  -0.0758423   0.0201108), wk =   0.0426667
        k(   36) = (   0.0875751  -0.0758423   0.0402215), wk =   0.0426667
        k(   37) = (   0.1094689  -0.0884827   0.0000000), wk =   0.0213333
        k(   38) = (   0.1094689  -0.0884827   0.0201108), wk =   0.0426667
        k(   39) = (   0.1094689  -0.0884827   0.0402215), wk =   0.0426667
        k(   40) = (   0.1313627  -0.1011231   0.0000000), wk =   0.0213333
        k(   41) = (   0.1313627  -0.1011231   0.0201108), wk =   0.0426667
        k(   42) = (   0.1313627  -0.1011231   0.0402215), wk =   0.0426667
        k(   43) = (   0.1532565  -0.1137634   0.0000000), wk =   0.0106667
        k(   44) = (   0.1532565  -0.1137634   0.0201108), wk =   0.0213333
        k(   45) = (   0.1532565  -0.1137634   0.0402215), wk =   0.0213333
        k(   46) = (   0.0437876  -0.0758423   0.0000000), wk =   0.0106667
        k(   47) = (   0.0437876  -0.0758423   0.0201108), wk =   0.0213333
        k(   48) = (   0.0437876  -0.0758423   0.0402215), wk =   0.0213333
        k(   49) = (   0.0656814  -0.0884827   0.0000000), wk =   0.0213333
        k(   50) = (   0.0656814  -0.0884827   0.0201108), wk =   0.0426667
        k(   51) = (   0.0656814  -0.0884827   0.0402215), wk =   0.0426667
        k(   52) = (   0.0875751  -0.1011231   0.0000000), wk =   0.0213333
        k(   53) = (   0.0875751  -0.1011231   0.0201108), wk =   0.0426667
        k(   54) = (   0.0875751  -0.1011231   0.0402215), wk =   0.0426667
        k(   55) = (   0.1094689  -0.1137634   0.0000000), wk =   0.0213333
        k(   56) = (   0.1094689  -0.1137634   0.0201108), wk =   0.0426667
        k(   57) = (   0.1094689  -0.1137634   0.0402215), wk =   0.0426667
        k(   58) = (   0.1313627  -0.1264038   0.0000000), wk =   0.0213333
        k(   59) = (   0.1313627  -0.1264038   0.0201108), wk =   0.0426667
        k(   60) = (   0.1313627  -0.1264038   0.0402215), wk =   0.0426667
[...]
        k(   67) = (   0.1094689  -0.1390442   0.0000000), wk =   0.0213333
        k(   68) = (   0.1094689  -0.1390442   0.0201108), wk =   0.0426667
        k(   69) = (   0.1094689  -0.1390442   0.0402215), wk =   0.0426667
        k(   70) = (   0.1313627  -0.1516846   0.0000000), wk =   0.0106667
        k(   71) = (   0.1313627  -0.1516846   0.0201108), wk =   0.0213333
        k(   72) = (   0.1313627  -0.1516846   0.0402215), wk =   0.0213333
        k(   73) = (   0.0875751  -0.1516846   0.0000000), wk =   0.0106667
        k(   74) = (   0.0875751  -0.1516846   0.0201108), wk =   0.0213333
        k(   75) = (   0.0875751  -0.1516846   0.0402215), wk =   0.0213333
        k(   76) = (   0.1094689  -0.1643250   0.0000000), wk =   0.0213333
        k(   77) = (   0.1094689  -0.1643250   0.0201108), wk =   0.0426667
        k(   78) = (   0.1094689  -0.1643250   0.0402215), wk =   0.0426667
        k(   79) = (   0.1094689  -0.1896057   0.0000000), wk =   0.0035556
        k(   80) = (   0.1094689  -0.1896057   0.0201108), wk =   0.0071111
        k(   81) = (   0.1094689  -0.1896057   0.0402215), wk =   0.0071111

     Check: negative/imaginary core charge=   -0.000002    0.000000

     Initial potential from superposition of free atoms

     starting charge   49.99176, renormalised to   51.00000
     Starting wfc are   49 randomized atomic wfcs

     Self-consistent Calculation

     iteration #  1     ecut=    33.07 Ry     beta=0.60
     Davidson diagonalization with overlap
     ethr =  1.00E-02,  avg # of iterations =  3.8

     total energy              =    -367.89085056 Ry
     Harris-Foulkes estimate   =    -479.90147708 Ry
     estimated scf accuracy    <     136.06266286 Ry

[...]

     iteration # 31     ecut=    33.07 Ry     beta=0.60
     Davidson diagonalization with overlap
     c_bands:  1 eigenvalues not converged
     ethr =  3.48E-12,  avg # of iterations =  7.1

[...]

     End of self-consistent calculation

          k = 0.0000 0.0000 0.0000 (  1727 PWs)   bands (ev):

   -41.6087 -39.7334 -39.6918 -39.6244 -17.8822 -17.7054 -17.7054 -16.0910
   -15.7821 -15.4032 -15.3760 -15.3760 -15.3397 -15.3397 -15.2831 -15.2831
     9.0275  10.6368  10.8075  11.7057  14.3756  14.7385  15.2207  15.2207
    15.2382  15.2382  15.5309  15.5570  15.5570  15.9638  16.1191

[...]

     the Fermi energy is    15.2863 ev

!    total energy              =    -470.46509856 Ry
     Harris-Foulkes estimate   =    -470.46509856 Ry
     estimated scf accuracy    <          1.5E-11 Ry

     The total energy is the sum of the following terms:

     one-electron contribution =    -110.04094783 Ry
     hartree contribution      =      75.61777568 Ry
     xc contribution           =     -69.47554566 Ry
     ewald contribution        =    -366.24815188 Ry
     smearing contrib. (-TS)   =      -0.31822886 Ry

     convergence has been achieved in  33 iterations

     Forces acting on atoms (Ry/au):

     atom    1 type  2   force =     0.00000000    0.00000000    0.00000000
     atom    2 type  1   force =    -0.00000000    0.00000000   -0.00217049
     atom    3 type  1   force =     0.00000000   -0.00000000    0.00000000
     atom    4 type  1   force =     0.00000000   -0.00000000    0.00217049

     Total force =     0.003070     Total SCF correction =     0.000011

     entering subroutine stress ...

          total   stress  (Ry/bohr**3)                   (kbar)     P=  -40.96
  -0.00029884   0.00000000  -0.00000000        -43.96      0.00     -0.00
   0.00000000  -0.00029884   0.00000000          0.00    -43.96      0.00
   0.00000000   0.00000000  -0.00023761          0.00      0.00    -34.95

     BFGS Geometry Optimization

     number of scf cycles    =   1
     number of bfgs steps    =   0

     enthalpy new            =    -470.4650985570 Ry

     new trust radius        =       0.0346870896 bohr
     new conv_thr            =            1.0E-10 Ry

     new unit-cell volume =    527.71946 a.u.^3 (    78.19995 Ang^3 )

CELL_PARAMETERS (alat=  1.88972599)
  -1.511127204  -2.617349277   0.000000000
   3.022254409   0.000000000   0.000000000
  -0.000000000   0.000000000   9.885847265

ATOMIC_POSITIONS (angstrom)
Ti       1.511127204  -2.617349277   4.942923633
Nb       0.000001512  -1.744900391   2.470320064
Nb       1.511127204  -2.617349277   9.885847265
Nb       0.000001512  -1.744900391   7.415527201

     NEW-OLD atomic charge density approx. for the potential

     Check: negative/imaginary core charge=   -0.000002    0.000000
     extrapolated charge   49.94131, renormalised to   51.00000

[...]

     enthalpy old            =    -470.4650985570 Ry
     enthalpy new            =    -470.4673632897 Ry

     CASE: enthalpy_new < enthalpy_old

[...]

          k =-0.0000-0.0000 0.0203 (  1709 PWs)   bands (ev):

[...]

          k =-0.0000 0.0000 0.0405 (  1708 PWs)   bands (ev):

[...]

     Total force =     0.000179     Total SCF correction =     0.000032
     SCF correction compared to forces is large: reduce conv_thr to get better values

[...]

     Threshold (ethr) on eigenvalues was too large:
     Diagonalizing with lowered threshold

     Davidson diagonalization with overlap
     c_bands:  1 eigenvalues not converged
     ethr =  9.74E-11,  avg # of iterations =  5.3

[...]

     Davidson diagonalization with overlap
     ethr =  7.09E-11,  avg # of iterations =  6.0

[...]

     small trust_radius: resetting bfgs history

[...]

     number of scf cycles    =  11
     number of bfgs steps    =  10

     enthalpy old            =    -470.4679019352 Ry
     enthalpy new            =    -470.4679019353 Ry

     CASE: enthalpy_new < enthalpy_old

     Message from routine bfgs:
     history already reset at previous step: stopping
     small trust_radius: resetting bfgs history

     new trust radius        =       0.0000052385 bohr
     new conv_thr            =            1.0E-12 Ry

     new unit-cell volume =    520.08168 a.u.^3 (    77.06815 Ang^3 )

[...]

ATOMIC_POSITIONS (angstrom)
Ti       1.499648580  -2.597467718   4.946242384
Nb       0.000001500  -1.731646011   2.473835298
Nb       1.499648580  -2.597467718   9.892484767
Nb       0.000001500  -1.731646011   7.418649469

     NEW-OLD atomic charge density approx. for the potential

     Check: negative/imaginary core charge=   -0.000002    0.000000
     extrapolated charge   50.99992, renormalised to   51.00000

[...]

     Threshold (ethr) on eigenvalues was too large:
     Diagonalizing with lowered threshold

     Davidson diagonalization with overlap
     ethr =  1.89E-12,  avg # of iterations =  2.4

[...]

     Total force =     0.000003     Total SCF correction =     0.000001
     SCF correction compared to forces is large: reduce conv_thr to get better values

[...]

     bfgs converged in  12 scf cycles and  11 bfgs steps
     (criteria: energy <  1.0E-10, force <  1.0E-05, cell <  1.0E-03)

     End of BFGS Geometry Optimization

     Final enthalpy =    -470.4679019352 Ry
Begin final coordinates
     new unit-cell volume =    520.08168 a.u.^3 (    77.06815 Ang^3 )

CELL_PARAMETERS (alat=  1.88972599)
  -1.499648580  -2.597467718   0.000000000
   2.999297160   0.000000000  -0.000000000
  -0.000000000  -0.000000000   9.892484767

ATOMIC_POSITIONS (angstrom)
Ti       1.499648580  -2.597467718   4.946242384
Nb       0.000001500  -1.731646011   2.473835298
Nb       1.499648580  -2.597467718   9.892484767
Nb       0.000001500  -1.731646011   7.418649469
End final coordinates

     A final scf calculation at the relaxed structure.
     The G-vectors are recalculated for the final unit cell
     Results may differ from those at the preceding step.

   Info: using nr1, nr2, nr3 values from input

   Info: using nr1, nr2, nr3 values from input

     bravais-lattice index     =            0
     lattice parameter (alat)  =       1.8897  a.u.
     unit-cell volume          =     520.0817 (a.u.)^3
     number of atoms/cell      =            4
     number of atomic types    =            2
     number of electrons       =        51.00
     number of Kohn-Sham states=           31
     kinetic-energy cutoff     =      33.0700  Ry
     charge density cutoff     =     330.7000  Ry
     convergence threshold     =      1.0E-12
     mixing beta               =       0.6000
     number of iterations used =            8  plain     mixing
     Exchange-correlation      = SLA  PW   PBE  PBE ( 1  4  3  4 0 0)

     celldm(1)=   1.889726  celldm(2)=   0.000000  celldm(3)=   0.000000
     celldm(4)=   0.000000  celldm(5)=   0.000000  celldm(6)=   0.000000

     crystal axes: (cart. coord. in units of alat)
               a(1) = (  -1.499649  -2.597468   0.000000 )
               a(2) = (   2.999297   0.000000  -0.000000 )
               a(3) = (  -0.000000  -0.000000   9.892485 )

     reciprocal axes: (cart. coord. in units 2 pi/alat)
               b(1) = (  0.000000 -0.384990 -0.000000 )
               b(2) = (  0.333411 -0.192495  0.000000 )
               b(3) = (  0.000000  0.000000  0.101087 )

     PseudoPot. # 1 for Nb read from file:
     ./Nb.pbe-nsp-van.UPF
     MD5 check sum: 2636d8d3a061c4aefa0a317108b12435
     Pseudo is Ultrasoft + core correction, Zval = 13.0
     Generated by new atomic code, or converted to UPF format
     Using radial grid of  887 points,  6 beta functions with:
                l(1) =   0
                l(2) =   0
                l(3) =   1
                l(4) =   1
                l(5) =   2
                l(6) =   2
     Q(r) pseudized with  6 coefficients,  rinner =    1.000   1.000   1.000
                                                       1.000   1.000

     PseudoPot. # 2 for Ti read from file:
     ./Ti.pbe-sp-van_ak.UPF
     MD5 check sum: 8e4df49b7f0d34bbd5052bf3f5ea0213
     Pseudo is Ultrasoft, Zval = 12.0
     Generated by new atomic code, or converted to UPF format
     Using radial grid of  851 points,  6 beta functions with:
                l(1) =   0
                l(2) =   0
                l(3) =   1
                l(4) =   1
                l(5) =   2
                l(6) =   2
     Q(r) pseudized with  8 coefficients,  rinner =    1.000   1.000   1.000
                                                       1.000   1.000

     atomic species   valence    mass     pseudopotential
        Nb            13.00    92.90600     Nb( 1.00)
        Ti            12.00    47.86700     Ti( 1.00)

     12 Sym. Ops. (no inversion) found

   Cartesian axes

     site n.     atom                  positions (alat units)
         1           Ti  tau(   1) = (   1.4996487  -2.5974679   4.9462428  )
         2           Nb  tau(   2) = (   0.0000015  -1.7316461   2.4738355  )
         3           Nb  tau(   3) = (   1.4996487  -2.5974679   9.8924855  )
         4           Nb  tau(   4) = (   0.0000015  -1.7316461   7.4186500  )

     number of k points=    81  Marzari-Vanderbilt smearing, width (Ry)=  0.2000
                       cart. coord. in units 2pi/alat
        k(    1) = (   0.0000000   0.0000000   0.0000000), wk =   0.0017778
        k(    2) = (   0.0000000   0.0000000   0.0202174), wk =   0.0035556
        k(    3) = (   0.0000000   0.0000000   0.0404347), wk =   0.0035556
        k(    4) = (   0.0222274  -0.0128330   0.0000000), wk =   0.0106667
        k(    5) = (   0.0222274  -0.0128330   0.0202174), wk =   0.0213333
        k(    6) = (   0.0222274  -0.0128330   0.0404347), wk =   0.0213333
        k(    7) = (   0.0444549  -0.0256660   0.0000000), wk =   0.0106667
        k(    8) = (   0.0444549  -0.0256660   0.0202174), wk =   0.0213333
        k(    9) = (   0.0444549  -0.0256660   0.0404347), wk =   0.0213333
        k(   10) = (   0.0666823  -0.0384990   0.0000000), wk =   0.0106667
        k(   11) = (   0.0666823  -0.0384990   0.0202174), wk =   0.0213333
        k(   12) = (   0.0666823  -0.0384990   0.0404347), wk =   0.0213333
        k(   13) = (   0.0889097  -0.0513320   0.0000000), wk =   0.0106667
        k(   14) = (   0.0889097  -0.0513320   0.0202174), wk =   0.0213333
        k(   15) = (   0.0889097  -0.0513320   0.0404347), wk =   0.0213333
        k(   16) = (   0.1111371  -0.0641651   0.0000000), wk =   0.0106667
        k(   17) = (   0.1111371  -0.0641651   0.0202174), wk =   0.0213333
        k(   18) = (   0.1111371  -0.0641651   0.0404347), wk =   0.0213333
        k(   19) = (   0.1333646  -0.0769981   0.0000000), wk =   0.0106667
        k(   20) = (   0.1333646  -0.0769981   0.0202174), wk =   0.0213333
        k(   21) = (   0.1333646  -0.0769981   0.0404347), wk =   0.0213333
        k(   22) = (   0.1555920  -0.0898311   0.0000000), wk =   0.0106667
        k(   23) = (   0.1555920  -0.0898311   0.0202174), wk =   0.0213333
        k(   24) = (   0.1555920  -0.0898311   0.0404347), wk =   0.0213333
        k(   25) = (   0.0222274  -0.0384990  -0.0000000), wk =   0.0106667
        k(   26) = (   0.0222274  -0.0384990   0.0202174), wk =   0.0213333
        k(   27) = (   0.0222274  -0.0384990   0.0404347), wk =   0.0213333
        k(   28) = (   0.0444549  -0.0513320  -0.0000000), wk =   0.0213333
        k(   29) = (   0.0444549  -0.0513320   0.0202174), wk =   0.0426667
        k(   30) = (   0.0444549  -0.0513320   0.0404347), wk =   0.0426667
        k(   31) = (   0.0666823  -0.0641651  -0.0000000), wk =   0.0213333
        k(   32) = (   0.0666823  -0.0641651   0.0202174), wk =   0.0426667
        k(   33) = (   0.0666823  -0.0641651   0.0404347), wk =   0.0426667
        k(   34) = (   0.0889097  -0.0769981  -0.0000000), wk =   0.0213333
        k(   35) = (   0.0889097  -0.0769981   0.0202174), wk =   0.0426667
        k(   36) = (   0.0889097  -0.0769981   0.0404347), wk =   0.0426667
        k(   37) = (   0.1111371  -0.0898311  -0.0000000), wk =   0.0213333
        k(   38) = (   0.1111371  -0.0898311   0.0202174), wk =   0.0426667
        k(   39) = (   0.1111371  -0.0898311   0.0404347), wk =   0.0426667
        k(   40) = (   0.1333646  -0.1026641  -0.0000000), wk =   0.0213333
        k(   41) = (   0.1333646  -0.1026641   0.0202174), wk =   0.0426667
        k(   42) = (   0.1333646  -0.1026641   0.0404347), wk =   0.0426667
        k(   43) = (   0.1555920  -0.1154971  -0.0000000), wk =   0.0106667
        k(   44) = (   0.1555920  -0.1154971   0.0202174), wk =   0.0213333
        k(   45) = (   0.1555920  -0.1154971   0.0404347), wk =   0.0213333
        k(   46) = (   0.0444549  -0.0769981  -0.0000000), wk =   0.0106667
        k(   47) = (   0.0444549  -0.0769981   0.0202174), wk =   0.0213333
        k(   48) = (   0.0444549  -0.0769981   0.0404347), wk =   0.0213333
        k(   49) = (   0.0666823  -0.0898311  -0.0000000), wk =   0.0213333
        k(   50) = (   0.0666823  -0.0898311   0.0202174), wk =   0.0426667
        k(   51) = (   0.0666823  -0.0898311   0.0404347), wk =   0.0426667
        k(   52) = (   0.0889097  -0.1026641  -0.0000000), wk =   0.0213333
        k(   53) = (   0.0889097  -0.1026641   0.0202174), wk =   0.0426667
        k(   54) = (   0.0889097  -0.1026641   0.0404347), wk =   0.0426667
        k(   55) = (   0.1111371  -0.1154971  -0.0000000), wk =   0.0213333
        k(   56) = (   0.1111371  -0.1154971   0.0202174), wk =   0.0426667
        k(   57) = (   0.1111371  -0.1154971   0.0404347), wk =   0.0426667
        k(   58) = (   0.1333646  -0.1283301  -0.0000000), wk =   0.0213333
        k(   59) = (   0.1333646  -0.1283301   0.0202174), wk =   0.0426667
        k(   60) = (   0.1333646  -0.1283301   0.0404347), wk =   0.0426667
[...]
        k(   67) = (   0.1111371  -0.1411631  -0.0000000), wk =   0.0213333
        k(   68) = (   0.1111371  -0.1411631   0.0202174), wk =   0.0426667
        k(   69) = (   0.1111371  -0.1411631   0.0404347), wk =   0.0426667
        k(   70) = (   0.1333646  -0.1539961  -0.0000000), wk =   0.0106667
        k(   71) = (   0.1333646  -0.1539961   0.0202174), wk =   0.0213333
        k(   72) = (   0.1333646  -0.1539961   0.0404347), wk =   0.0213333
        k(   73) = (   0.0889097  -0.1539961  -0.0000000), wk =   0.0106667
        k(   74) = (   0.0889097  -0.1539961   0.0202174), wk =   0.0213333
        k(   75) = (   0.0889097  -0.1539961   0.0404347), wk =   0.0213333
        k(   76) = (   0.1111371  -0.1668292  -0.0000000), wk =   0.0213333
        k(   77) = (   0.1111371  -0.1668292   0.0202174), wk =   0.0426667
        k(   78) = (   0.1111371  -0.1668292   0.0404347), wk =   0.0426667
        k(   79) = (   0.1111371  -0.1924952  -0.0000000), wk =   0.0035556
        k(   80) = (   0.1111371  -0.1924952   0.0202174), wk =   0.0071111
        k(   81) = (   0.1111371  -0.1924952   0.0404347), wk =   0.0071111

     Check: negative/imaginary core charge=   -0.000002    0.000000

     Initial potential from superposition of free atoms

     starting charge   49.99176, renormalised to   51.00000
     Starting wfc are   49 randomized atomic wfcs

     Self-consistent Calculation

[...]

     negative rho (up, down):  1.352E-03 0.000E+00

[...]

     iteration # 43     ecut=    33.07 Ry     beta=0.60
     Davidson diagonalization with overlap
     c_bands:  1 eigenvalues not converged
     ethr =  1.00E-13,  avg # of iterations =  5.9

     total energy              =    -470.46662511 Ry
     Harris-Foulkes estimate   =    -470.46662511 Ry
     estimated scf accuracy    <          1.6E-12 Ry

     iteration # 44     ecut=    33.07 Ry     beta=0.60
     Davidson diagonalization with overlap
     ethr =  1.00E-13,  avg # of iterations =  1.0

     End of self-consistent calculation

[...]

          k = 0.1111-0.1925 0.0404 (  1656 PWs)   bands (ev):

   -40.8500 -38.8588 -38.8587 -38.8344 -17.2620 -17.2536 -17.1179 -15.3112
   -15.3048 -15.2936 -15.1885 -15.1858 -15.0694 -14.9378 -14.8146 -14.8016
    13.2034  13.7157  13.7954  13.8350  14.1090  14.1122  14.3287  14.3525
    15.1306  15.2333  15.4477  15.7663  16.8402  16.9371  17.9951

     the Fermi energy is    15.9104 ev

!    total energy              =    -470.46662511 Ry
     Harris-Foulkes estimate   =    -470.46662511 Ry
     estimated scf accuracy    <          1.3E-13 Ry

     The total energy is the sum of the following terms:

     one-electron contribution =    -103.72700459 Ry
     hartree contribution      =      73.77162824 Ry
     xc contribution           =     -69.60426964 Ry
     ewald contribution        =    -370.60976641 Ry
     smearing contrib. (-TS)   =      -0.29721270 Ry

     convergence has been achieved in  44 iterations

     Forces acting on atoms (Ry/au):

     atom    1 type  2   force =     0.00000000   -0.00000000   -0.00000000
     atom    2 type  1   force =    -0.00000000    0.00000000   -0.00001406
     atom    3 type  1   force =     0.00000000   -0.00000000   -0.00000000
     atom    4 type  1   force =     0.00000000    0.00000000    0.00001406

     Total force =     0.000020     Total SCF correction =     0.000000

     entering subroutine stress ...

          total   stress  (Ry/bohr**3)                   (kbar)     P=   -1.25
  -0.00000958  -0.00000000  -0.00000000         -1.41     -0.00     -0.00
  -0.00000000  -0.00000958  -0.00000000         -0.00     -1.41     -0.00
  -0.00000000  -0.00000000  -0.00000642         -0.00     -0.00     -0.94

     General routines

     Parallel routines

   This run was terminated on:  17: 6:53   7Mar2018

   JOB DONE.