     Program PWSCF v.6.3MaX starts on  4Feb2020 at 12: 8:10

     R & G space division:  proc/nbgrp/npool/nimage =       4
     Waiting for input...
     Reading input from standard input

     Current dimensions of program PWSCF are:
     Max number of different atomic species (ntypx) = 10
     Max number of k-points (npk) =  40000
     Max angular momentum in pseudopotentials (lmaxx) =  3
     Message from routine iosys:
     minimal I/O required, wf_collect reset to FALSE

     Subspace diagonalization in iterative solution of the eigenvalue problem:
     a serial algorithm will be used

     bravais-lattice index     =            0
     lattice parameter (alat)  =       1.8897  a.u.
     unit-cell volume          =     880.0102 (a.u.)^3
     number of atoms/cell      =            6
     number of atomic types    =            2
     number of electrons       =        74.00
     number of Kohn-Sham states=           44
     kinetic-energy cutoff     =      50.0000  Ry
     charge density cutoff     =     500.0000  Ry
     convergence threshold     =      1.0E-10
     mixing beta               =       0.6000
     number of iterations used =            8  plain     mixing
     Exchange-correlation      = SLA PW PBE PBE ( 1  4  3  4 0 0)
     nstep                     =           50

     celldm(1)=   1.889726  celldm(2)=   0.000000  celldm(3)=   0.000000
     celldm(4)=   0.000000  celldm(5)=   0.000000  celldm(6)=   0.000000

     crystal axes: (cart. coord. in units of alat)
               a(1) = (   5.274095  -1.758031  -1.758031 )
               a(2) = (  -5.274095  -1.758031  -1.758031 )
               a(3) = (   0.000000   3.516063  -3.516063 )

     reciprocal axes: (cart. coord. in units 2 pi/alat)
               b(1) = (  0.094803 -0.142205 -0.142205 )
               b(2) = ( -0.094803 -0.142205 -0.142205 )
               b(3) = (  0.000000  0.142205 -0.142205 )

     PseudoPot. # 1 for Nb read from file:
     ./Nb.pbe-nsp-van.UPF
     MD5 check sum: 0a22fc7fb0ba19a08ca5db297a5d2854
     Pseudo is Ultrasoft + core correction, Zval = 13.0
     Generated by new atomic code, or converted to UPF format
     Using radial grid of  887 points,  6 beta functions with:
                l(1) =   0
                l(2) =   0
                l(3) =   1
                l(4) =   1
                l(5) =   2
                l(6) =   2
     Q(r) pseudized with  6 coefficients,  rinner =    1.000   1.000   1.000
                                                       1.000   1.000

     PseudoPot. # 2 for Ti read from file:
     ./Ti.pbe-sp-van_ak.UPF
     MD5 check sum: f98fea3e8887528921fefa5636a534ca
     Pseudo is Ultrasoft, Zval = 12.0
     Generated by new atomic code, or converted to UPF format
     Using radial grid of  851 points,  6 beta functions with:
                l(1) =   0
                l(2) =   0
                l(3) =   1
                l(4) =   1
                l(5) =   2
                l(6) =   2
     Q(r) pseudized with  8 coefficients,  rinner =    1.000   1.000   1.000
                                                       1.000   1.000

     atomic species   valence    mass     pseudopotential
        Nb            13.00    92.90638     Nb( 1.00)
        Ti            12.00    47.86700     Ti( 1.00)

      4 Sym. Ops. (no inversion) found
          (note:  4 additional sym.ops. were found but ignored
           their fractional translations are incommensurate with FFT grid)

   Cartesian axes

     site n.     atom                  positions (alat units)
         1           Ti  tau(   1) = (   3.5160633   0.0000000  -3.5160633  )
         2           Ti  tau(   2) = (   0.0000000   0.0000000  -7.0321265  )
         3           Nb  tau(   3) = (  -3.5160633   0.0000000  -3.5160633  )
         4           Ti  tau(   4) = (  -1.7580316   1.7580316  -5.2740949  )
         5           Ti  tau(   5) = (   1.7580316   1.7580316  -5.2740949  )
         6           Nb  tau(   6) = (   0.0000000   0.0000000  -3.5160633  )

     number of k points=   252  Marzari-Vanderbilt smearing, width (Ry)=  0.0200

     Number of k-points >= 100: set verbosity='high' to print them.

     Initial potential from superposition of free atoms

     starting charge   69.99436, renormalised to   74.00000
     Starting wfcs are   66 randomized atomic wfcs

     Self-consistent Calculation

     iteration #  1     ecut=    50.00 Ry     beta= 0.60
     Davidson diagonalization with overlap
     ethr =  1.00E-02,  avg # of iterations =  3.7

     total energy              =    -695.14559428 Ry
     Harris-Foulkes estimate   =    -704.69205557 Ry
     estimated scf accuracy    <      12.24413651 Ry

[...]

     End of self-consistent calculation

     Number of k-points >= 100: set verbosity='high' to print the bands.

     the Fermi energy is    11.4323 ev

!    total energy              =    -702.31908906 Ry
     Harris-Foulkes estimate   =    -702.31908906 Ry
     estimated scf accuracy    <          7.7E-11 Ry

     The total energy is the sum of the following terms:

     one-electron contribution =    -252.70646883 Ry
     hartree contribution      =     144.58274434 Ry
     xc contribution           =     -93.99687205 Ry
     ewald contribution        =    -500.19801904 Ry
     smearing contrib. (-TS)   =      -0.00047348 Ry

     convergence has been achieved in  34 iterations

     Forces acting on atoms (cartesian axes, Ry/au):

     atom    1 type  2   force =    -0.00000751    0.00000000    0.00000000
     atom    2 type  2   force =     0.01016754    0.00000000    0.00000000
     atom    3 type  1   force =    -0.01814103    0.00000000    0.00000000
     atom    4 type  2   force =    -0.00000647    0.00000000    0.00000000
     atom    5 type  2   force =    -0.01015595    0.00000000    0.00000000
     atom    6 type  1   force =     0.01814342    0.00000000    0.00000000

     Total force =     0.029408     Total SCF correction =     0.000017

     Computing stress (Cartesian axis) and pressure

          total   stress  (Ry/bohr**3)                   (kbar)     P= -190.08
  -0.00128985  -0.00000000  -0.00000000       -189.74     -0.00     -0.00
   0.00000000  -0.00129324  -0.00001257          0.00   -190.24     -1.85
   0.00000000  -0.00001257  -0.00129324          0.00     -1.85   -190.24

     BFGS Geometry Optimization

     number of scf cycles    =   1
     number of bfgs steps    =   0

     enthalpy new            =    -702.3190890615 Ry

     new trust radius        =       0.1918283625 bohr
     new conv_thr            =            1.0E-10 Ry

     new unit-cell volume =    797.45500 a.u.^3 (   118.17064 Ang^3 )
     density =      5.30157 g/cm^3

CELL_PARAMETERS (alat=  1.88972599)
   5.104024274  -1.700640180  -1.700640180
  -5.104024274  -1.700640180  -1.700640180
   0.000000000   3.403490329  -3.403490329

ATOMIC_POSITIONS (angstrom)
Ti       3.402679002   0.001104984  -3.402385345
Ti       0.005206931   0.002209968  -6.804770689
Nb      -3.411973110   0.001104984  -3.402385345
Ti      -1.701344740   1.702850148  -5.104130509
Ti       1.696140431   1.702850148  -5.104130509
Nb       0.009291486   0.001104984  -3.402385345

     NEW-OLD atomic charge density approx. for the potential
     extrapolated charge   66.75395, renormalised to   74.00000

[...]

     iteration #  1     ecut=    50.00 Ry     beta= 0.60
     Davidson diagonalization with overlap
     c_bands:  1 eigenvalues not converged
     c_bands:  1 eigenvalues not converged
     c_bands:  1 eigenvalues not converged
     c_bands:  1 eigenvalues not converged
     c_bands:  1 eigenvalues not converged
     c_bands:  1 eigenvalues not converged
     c_bands:  3 eigenvalues not converged
     c_bands:  1 eigenvalues not converged
     c_bands:  1 eigenvalues not converged
     c_bands:  1 eigenvalues not converged
     c_bands:  1 eigenvalues not converged
     c_bands:  1 eigenvalues not converged
     c_bands:  1 eigenvalues not converged
     c_bands:  1 eigenvalues not converged
     c_bands:  1 eigenvalues not converged
     c_bands:  1 eigenvalues not converged
     c_bands:  1 eigenvalues not converged
     c_bands:  1 eigenvalues not converged
     c_bands:  2 eigenvalues not converged
     c_bands:  1 eigenvalues not converged
     c_bands:  2 eigenvalues not converged
     c_bands:  1 eigenvalues not converged
     c_bands:  1 eigenvalues not converged
     c_bands:  1 eigenvalues not converged
     c_bands:  2 eigenvalues not converged
     c_bands:  1 eigenvalues not converged
     c_bands:  1 eigenvalues not converged
     c_bands:  1 eigenvalues not converged
     c_bands:  1 eigenvalues not converged
     c_bands:  1 eigenvalues not converged
     c_bands:  1 eigenvalues not converged
     c_bands:  1 eigenvalues not converged
     c_bands:  1 eigenvalues not converged
     c_bands:  1 eigenvalues not converged
     c_bands:  2 eigenvalues not converged
     c_bands:  1 eigenvalues not converged
     c_bands:  1 eigenvalues not converged
     c_bands:  1 eigenvalues not converged
     c_bands:  1 eigenvalues not converged
     c_bands:  1 eigenvalues not converged
     c_bands:  1 eigenvalues not converged
     c_bands:  1 eigenvalues not converged
     c_bands:  1 eigenvalues not converged
     ethr =  1.00E-06,  avg # of iterations = 17.2

[...]

     enthalpy old            =    -702.3190890615 Ry
     enthalpy new            =    -702.4104558528 Ry

     CASE: enthalpy_new < enthalpy_old

[...]

     Threshold (ethr) on eigenvalues was too large:
     Diagonalizing with lowered threshold

     Davidson diagonalization with overlap
     ethr =  9.72E-08,  avg # of iterations =  1.4

[...]

     Total force =     0.000013     Total SCF correction =     0.000003
     SCF correction compared to forces is large: reduce conv_thr to get better values

[...]

     small trust_radius: resetting bfgs history

[...]

     Total force =     0.000003     Total SCF correction =     0.000000

[...]

     number of scf cycles    =  24
     number of bfgs steps    =  23

     enthalpy old            =    -702.4561828843 Ry
     enthalpy new            =    -702.4561828845 Ry

     CASE: enthalpy_new < enthalpy_old

     Message from routine bfgs:
     history already reset at previous step: stopping
     small trust_radius: resetting bfgs history

     new trust radius        =       0.0000028149 bohr
     new conv_thr            =            1.0E-12 Ry

     new unit-cell volume =    704.98707 a.u.^3 (   104.46830 Ang^3 )
     density =      5.99693 g/cm^3

[...]

ATOMIC_POSITIONS (angstrom)
Ti       3.257465418   0.011385132  -3.269594020
Ti      -0.017530694   0.022770263  -6.539188040
Nb      -3.322215188   0.011385132  -3.269594020
Ti      -1.628742989   1.651874708  -4.910083596
Ti       1.646293812   1.651874708  -4.910083596
Nb       0.064729640   0.011385132  -3.269594020

     NEW-OLD atomic charge density approx. for the potential
     extrapolated charge   73.99998, renormalised to   74.00000

[...]

     Threshold (ethr) on eigenvalues was too large:
     Diagonalizing with lowered threshold

     Davidson diagonalization with overlap
     ethr =  5.87E-14,  avg # of iterations =  4.0

[...]

     bfgs converged in  25 scf cycles and  24 bfgs steps
     (criteria: energy <  1.0E-10 Ry, force <  1.0E-05Ry/Bohr, cell <  1.0E-03kbar)

     End of BFGS Geometry Optimization

     Final enthalpy =    -702.4561828845 Ry
Begin final coordinates
     new unit-cell volume =    704.98707 a.u.^3 (   104.46830 Ang^3 )
     density =      5.99693 g/cm^3

CELL_PARAMETERS (alat=  1.88972599)
   4.886211381  -1.629104444  -1.629104444
  -4.886211381  -1.629104444  -1.629104444
   0.000000000   3.280979152  -3.280979152

ATOMIC_POSITIONS (angstrom)
Ti       3.257465418   0.011385132  -3.269594020
Ti      -0.017530694   0.022770263  -6.539188040
Nb      -3.322215188   0.011385132  -3.269594020
Ti      -1.628742989   1.651874708  -4.910083596
Ti       1.646293812   1.651874708  -4.910083596
Nb       0.064729640   0.011385132  -3.269594020
End final coordinates

     A final scf calculation at the relaxed structure.
     The G-vectors are recalculated for the final unit cell
     Results may differ from those at the preceding step.

     bravais-lattice index     =            0
     lattice parameter (alat)  =       1.8897  a.u.
     unit-cell volume          =     704.9871 (a.u.)^3
     number of atoms/cell      =            6
     number of atomic types    =            2
     number of electrons       =        74.00
     number of Kohn-Sham states=           44
     kinetic-energy cutoff     =      50.0000  Ry
     charge density cutoff     =     500.0000  Ry
     convergence threshold     =      1.0E-12
     mixing beta               =       0.6000
     number of iterations used =            8  plain     mixing
     Exchange-correlation      = SLA PW PBE PBE ( 1  4  3  4 0 0)

     celldm(1)=   1.889726  celldm(2)=   0.000000  celldm(3)=   0.000000
     celldm(4)=   0.000000  celldm(5)=   0.000000  celldm(6)=   0.000000

     crystal axes: (cart. coord. in units of alat)
               a(1) = (   4.886211  -1.629104  -1.629104 )
               a(2) = (  -4.886211  -1.629104  -1.629104 )
               a(3) = (   0.000000   3.280979  -3.280979 )

     reciprocal axes: (cart. coord. in units 2 pi/alat)
               b(1) = (  0.102329 -0.153459 -0.153459 )
               b(2) = ( -0.102329 -0.153459 -0.153459 )
               b(3) = (  0.000000  0.152394 -0.152394 )

     PseudoPot. # 1 for Nb read from file:
     ./Nb.pbe-nsp-van.UPF
     MD5 check sum: 0a22fc7fb0ba19a08ca5db297a5d2854
     Pseudo is Ultrasoft + core correction, Zval = 13.0
     Generated by new atomic code, or converted to UPF format
     Using radial grid of  887 points,  6 beta functions with:
                l(1) =   0
                l(2) =   0
                l(3) =   1
                l(4) =   1
                l(5) =   2
                l(6) =   2
     Q(r) pseudized with  6 coefficients,  rinner =    1.000   1.000   1.000
                                                       1.000   1.000

     PseudoPot. # 2 for Ti read from file:
     ./Ti.pbe-sp-van_ak.UPF
     MD5 check sum: f98fea3e8887528921fefa5636a534ca
     Pseudo is Ultrasoft, Zval = 12.0
     Generated by new atomic code, or converted to UPF format
     Using radial grid of  851 points,  6 beta functions with:
                l(1) =   0
                l(2) =   0
                l(3) =   1
                l(4) =   1
                l(5) =   2
                l(6) =   2
     Q(r) pseudized with  8 coefficients,  rinner =    1.000   1.000   1.000
                                                       1.000   1.000

     atomic species   valence    mass     pseudopotential
        Nb            13.00    92.90638     Nb( 1.00)
        Ti            12.00    47.86700     Ti( 1.00)

      4 Sym. Ops. (no inversion) found
          (note:  4 additional sym.ops. were found but ignored
           their fractional translations are incommensurate with FFT grid)

   Cartesian axes

     site n.     atom                  positions (alat units)
         1           Ti  tau(   1) = (   3.2574657   0.0113851  -3.2695943  )
         2           Ti  tau(   2) = (  -0.0175307   0.0227703  -6.5391885  )
         3           Nb  tau(   3) = (  -3.3222154   0.0113851  -3.2695943  )
         4           Ti  tau(   4) = (  -1.6287431   1.6518748  -4.9100840  )
         5           Ti  tau(   5) = (   1.6462939   1.6518748  -4.9100840  )
         6           Nb  tau(   6) = (   0.0647296   0.0113851  -3.2695943  )

     number of k points=   252  Marzari-Vanderbilt smearing, width (Ry)=  0.0200

     Number of k-points >= 100: set verbosity='high' to print them.

     Initial potential from superposition of free atoms

     starting charge   69.99436, renormalised to   74.00000
     Starting wfcs are   66 randomized atomic wfcs

     Self-consistent Calculation

[...]

     iteration # 16     ecut=    50.00 Ry     beta= 0.60
     Davidson diagonalization with overlap
     c_bands:  1 eigenvalues not converged
     ethr =  4.24E-07,  avg # of iterations =  5.7

[...]

     total energy              =    -702.45553098 Ry
     Harris-Foulkes estimate   =    -702.45553098 Ry
     estimated scf accuracy    <          1.1E-11 Ry

     iteration # 30     ecut=    50.00 Ry     beta= 0.60
     Davidson diagonalization with overlap
     ethr =  1.00E-13,  avg # of iterations =  1.6

     End of self-consistent calculation

     Number of k-points >= 100: set verbosity='high' to print the bands.

     the Fermi energy is    14.9468 ev

!    total energy              =    -702.45553098 Ry
     Harris-Foulkes estimate   =    -702.45553098 Ry
     estimated scf accuracy    <          5.2E-13 Ry

     The total energy is the sum of the following terms:

     one-electron contribution =    -196.33351720 Ry
     hartree contribution      =     127.26594342 Ry
     xc contribution           =     -95.05691896 Ry
     ewald contribution        =    -538.33022634 Ry
     smearing contrib. (-TS)   =      -0.00081189 Ry

     convergence has been achieved in  30 iterations

     Forces acting on atoms (cartesian axes, Ry/au):

     atom    1 type  2   force =     0.00000267    0.00000000    0.00000000
     atom    2 type  2   force =    -0.00000304    0.00000000    0.00000000
     atom    3 type  1   force =    -0.00000520    0.00000000    0.00000000
     atom    4 type  2   force =     0.00000088    0.00000000    0.00000000
     atom    5 type  2   force =    -0.00000150    0.00000000    0.00000000
     atom    6 type  1   force =     0.00000619    0.00000000    0.00000000

     Total force =     0.000009     Total SCF correction =     0.000002
     SCF correction compared to forces is large: reduce conv_thr to get better values

     Computing stress (Cartesian axis) and pressure

          total   stress  (Ry/bohr**3)                   (kbar)     P=   -0.44
  -0.00000285   0.00000000   0.00000000         -0.42      0.00      0.00
  -0.00000000  -0.00000309   0.00000010         -0.00     -0.45      0.01
  -0.00000000   0.00000010  -0.00000309         -0.00      0.01     -0.45

     General routines

     Parallel routines

       3h

   This run was terminated on:  19:11:54   4Feb2020

   JOB DONE.