     Program PWSCF v.6.0 (svn rev. 13079) starts on 27Apr2018 at 11:47:45

     Current dimensions of program PWSCF are:
     Max number of different atomic species (ntypx) = 10
     Max number of k-points (npk) =  40000
     Max angular momentum in pseudopotentials (lmaxx) =  3

     Subspace diagonalization in iterative solution of the eigenvalue problem:
     a serial algorithm will be used

     bravais-lattice index     =            0
     lattice parameter (alat)  =       1.8897  a.u.
     unit-cell volume          =     808.3427 (a.u.)^3
     number of atoms/cell      =            6
     number of atomic types    =            2
     number of electrons       =        74.00
     number of Kohn-Sham states=           44
     kinetic-energy cutoff     =      40.0000  Ry
     charge density cutoff     =     400.0000  Ry
     convergence threshold     =      1.0E-10
     mixing beta               =       0.6000
     number of iterations used =            8  plain     mixing
     Exchange-correlation      = SLA  PW   PBE  PBE ( 1  4  3  4 0 0)
     nstep                     =           50

     celldm(1)=   1.889726  celldm(2)=   0.000000  celldm(3)=   0.000000
     celldm(4)=   0.000000  celldm(5)=   0.000000  celldm(6)=   0.000000

     crystal axes: (cart. coord. in units of alat)
               a(1) = (   6.090008   5.274102   0.000000 )
               a(2) = (  -7.612510  -2.637051   0.000000 )
               a(3) = (   0.000000   0.000000   4.972461 )

     reciprocal axes: (cart. coord. in units 2 pi/alat)
               b(1) = ( -0.109469  0.316010  0.000000 )
               b(2) = ( -0.218938  0.252808  0.000000 )
               b(3) = (  0.000000 -0.000000  0.201108 )

     PseudoPot. # 1 for Nb read from file:
     ./Nb.pbe-nsp-van.UPF
     MD5 check sum: 0a22fc7fb0ba19a08ca5db297a5d2854
     Pseudo is Ultrasoft + core correction, Zval = 13.0
     Generated by new atomic code, or converted to UPF format
     Using radial grid of  887 points,  6 beta functions with:
                l(1) =   0
                l(2) =   0
                l(3) =   1
                l(4) =   1
                l(5) =   2
                l(6) =   2
     Q(r) pseudized with  6 coefficients,  rinner =    1.000   1.000   1.000
                                                       1.000   1.000

     PseudoPot. # 2 for Ti read from file:
     ./Ti.pbe-sp-van_ak.UPF
     MD5 check sum: f98fea3e8887528921fefa5636a534ca
     Pseudo is Ultrasoft, Zval = 12.0
     Generated by new atomic code, or converted to UPF format
     Using radial grid of  851 points,  6 beta functions with:
                l(1) =   0
                l(2) =   0
                l(3) =   1
                l(4) =   1
                l(5) =   2
                l(6) =   2
     Q(r) pseudized with  8 coefficients,  rinner =    1.000   1.000   1.000
                                                       1.000   1.000

     atomic species   valence    mass     pseudopotential
        Nb            13.00    92.90638     Nb( 1.00)
        Ti            12.00    47.86700     Ti( 1.00)

      4 Sym. Ops. (no inversion) found

   Cartesian axes

     site n.     atom                  positions (alat units)
         1           Ti  tau(   1) = (  -1.5225021   2.6370512   4.9724614  )
         2           Ti  tau(   2) = (  -1.5225006   0.8790162   2.4862307  )
         3           Ti  tau(   3) = (   1.5225021   2.6370512   4.9724614  )
         4           Ti  tau(   4) = (  -6.0900069  -1.7580350   2.4862307  )
         5           Nb  tau(   5) = (  -3.0450042   0.0000000   4.9724614  )
         6           Nb  tau(   6) = (   3.0450058   3.5160674   2.4862307  )

     number of k points=   248  Marzari-Vanderbilt smearing, width (Ry)=  0.0200

     Number of k-points >= 100: set verbosity='high' to print them.

     Initial potential from superposition of free atoms

     starting charge   69.99436, renormalised to   74.00000
     Starting wfc are   66 randomized atomic wfcs

     Self-consistent Calculation

     iteration #  1     ecut=    40.00 Ry     beta=0.60
     Davidson diagonalization with overlap
     ethr =  1.00E-02,  avg # of iterations =  4.0

     total energy              =    -649.90414852 Ry
     Harris-Foulkes estimate   =    -709.90522495 Ry
     estimated scf accuracy    <      73.74543050 Ry

[...]

     iteration # 24     ecut=    40.00 Ry     beta=0.60
     Davidson diagonalization with overlap
     c_bands:  1 eigenvalues not converged
     c_bands:  1 eigenvalues not converged
     c_bands:  1 eigenvalues not converged
     c_bands:  1 eigenvalues not converged
     c_bands:  1 eigenvalues not converged
     ethr =  2.71E-06,  avg # of iterations =  6.2

[...]

     End of self-consistent calculation

     Number of k-points >= 100: set verbosity='high' to print the bands.

     the Fermi energy is    12.9817 ev

!    total energy              =    -702.37948795 Ry
     Harris-Foulkes estimate   =    -702.37948795 Ry
     estimated scf accuracy    <          3.5E-11 Ry

     The total energy is the sum of the following terms:

     one-electron contribution =    -231.82382223 Ry
     hartree contribution      =     138.01208333 Ry
     xc contribution           =     -94.34663383 Ry
     ewald contribution        =    -514.21638254 Ry
     smearing contrib. (-TS)   =      -0.00473268 Ry

     convergence has been achieved in  39 iterations

     Forces acting on atoms (Ry/au):

     atom    1 type  2   force =    -0.00073164   -0.00042241    0.00000000
     atom    2 type  2   force =     0.00183807    0.00106121    0.00000000
     atom    3 type  2   force =    -0.00182332   -0.00105270    0.00000000
     atom    4 type  2   force =     0.00070546    0.00040729    0.00000000
     atom    5 type  1   force =     0.00232541    0.00134258    0.00000000
     atom    6 type  1   force =    -0.00231397   -0.00133597    0.00000000

     Total force =     0.004966     Total SCF correction =     0.000025

     entering subroutine stress ...

          total   stress  (Ry/bohr**3)                   (kbar)     P= -126.92
  -0.00086318   0.00001882   0.00000000       -126.98      2.77      0.00
   0.00001882  -0.00088491   0.00000000          2.77   -130.17      0.00
   0.00000000   0.00000000  -0.00084022          0.00      0.00   -123.60

     BFGS Geometry Optimization

     number of scf cycles    =   1
     number of bfgs steps    =   0

     enthalpy new            =    -702.3794879459 Ry

     new trust radius        =       0.1258243237 bohr
     new conv_thr            =            1.0E-10 Ry

     new unit-cell volume =    757.15634 a.u.^3 (   112.19899 Ang^3 )

CELL_PARAMETERS (alat=  1.88972599)
   5.961069040   5.160289113   0.000000000
  -7.449475661  -2.582293036   0.000000000
   0.000000000   0.000000000   4.868012028

ATOMIC_POSITIONS (angstrom)
Ti      -1.488785540   2.577777307   4.868012028
Ti      -1.488280141   0.859403330   2.434006014
Ti       1.489943171   2.578883203   4.868012028
Ti      -5.959048293  -1.721796051   2.434006014
Nb      -2.978089761  -0.000736998   4.868012028
Nb       2.979751075   3.439022541   2.434006014

     NEW-OLD atomic charge density approx. for the potential
     extrapolated charge   69.26814, renormalised to   74.00000

[...]

     enthalpy old            =    -702.3794879459 Ry
     enthalpy new            =    -702.4131684900 Ry

     CASE: enthalpy_new < enthalpy_old

[...]

     Threshold (ethr) on eigenvalues was too large:
     Diagonalizing with lowered threshold

     Davidson diagonalization with overlap
     ethr =  3.94E-08,  avg # of iterations =  1.7

[...]

     Total force =     0.000115     Total SCF correction =     0.000019
     SCF correction compared to forces is large: reduce conv_thr to get better values

[...]

     small trust_radius: resetting bfgs history

[...]

     number of scf cycles    =  27
     number of bfgs steps    =  26

     enthalpy old            =    -702.4435183502 Ry
     enthalpy new            =    -702.4435183504 Ry

     CASE: enthalpy_new < enthalpy_old

     Message from routine bfgs:
     history already reset at previous step: stopping
     small trust_radius: resetting bfgs history

     new trust radius        =       0.0000069283 bohr
     new conv_thr            =            1.0E-12 Ry

     new unit-cell volume =    712.23410 a.u.^3 (   105.54220 Ang^3 )

[...]

ATOMIC_POSITIONS (angstrom)
Ti      -1.266702202   2.504705573   4.702438032
Ti      -1.522379262   0.739070495   2.351219016
Ti       1.662328384   2.577764046   4.702438032
Ti      -6.229579585  -1.978633055   2.351219016
Nb      -2.821242164  -0.010826801   4.702438032
Nb       2.961325321   3.327738726   2.351219016

     NEW-OLD atomic charge density approx. for the potential
     extrapolated charge   74.00004, renormalised to   74.00000

[...]

     Threshold (ethr) on eigenvalues was too large:
     Diagonalizing with lowered threshold

     Davidson diagonalization with overlap
     ethr =  6.39E-13,  avg # of iterations =  3.6

[...]

     Total force =     0.000004     Total SCF correction =     0.000001
     SCF correction compared to forces is large: reduce conv_thr to get better values

[...]

     bfgs converged in  28 scf cycles and  27 bfgs steps
     (criteria: energy <  1.0E-10, force <  1.0E-05, cell <  1.0E-03)

     End of BFGS Geometry Optimization

     Final enthalpy =    -702.4435183505 Ry
Begin final coordinates
     new unit-cell volume =    712.23410 a.u.^3 (   105.54220 Ang^3 )

CELL_PARAMETERS (alat=  1.88972599)
   6.235069008   5.217837256   0.000000000
  -7.636313804  -2.790809881   0.000000000
   0.000000000   0.000000000   4.702438032

ATOMIC_POSITIONS (angstrom)
Ti      -1.266702202   2.504705573   4.702438032
Ti      -1.522379262   0.739070495   2.351219016
Ti       1.662328384   2.577764046   4.702438032
Ti      -6.229579585  -1.978633055   2.351219016
Nb      -2.821242164  -0.010826801   4.702438032
Nb       2.961325321   3.327738726   2.351219016
End final coordinates

     A final scf calculation at the relaxed structure.
     The G-vectors are recalculated for the final unit cell
     Results may differ from those at the preceding step.

   Info: using nr1, nr2, nr3 values from input

   Info: using nr1, nr2, nr3 values from input

     bravais-lattice index     =            0
     lattice parameter (alat)  =       1.8897  a.u.
     unit-cell volume          =     712.2341 (a.u.)^3
     number of atoms/cell      =            6
     number of atomic types    =            2
     number of electrons       =        74.00
     number of Kohn-Sham states=           44
     kinetic-energy cutoff     =      40.0000  Ry
     charge density cutoff     =     400.0000  Ry
     convergence threshold     =      1.0E-12
     mixing beta               =       0.6000
     number of iterations used =            8  plain     mixing
     Exchange-correlation      = SLA  PW   PBE  PBE ( 1  4  3  4 0 0)

     celldm(1)=   1.889726  celldm(2)=   0.000000  celldm(3)=   0.000000
     celldm(4)=   0.000000  celldm(5)=   0.000000  celldm(6)=   0.000000

     crystal axes: (cart. coord. in units of alat)
               a(1) = (   6.235069   5.217837   0.000000 )
               a(2) = (  -7.636314  -2.790810   0.000000 )
               a(3) = (   0.000000   0.000000   4.702438 )

     reciprocal axes: (cart. coord. in units 2 pi/alat)
               b(1) = ( -0.124345  0.340236  0.000000 )
               b(2) = ( -0.232481  0.277804  0.000000 )
               b(3) = (  0.000000 -0.000000  0.212656 )

     PseudoPot. # 1 for Nb read from file:
     ./Nb.pbe-nsp-van.UPF
     MD5 check sum: 0a22fc7fb0ba19a08ca5db297a5d2854
     Pseudo is Ultrasoft + core correction, Zval = 13.0
     Generated by new atomic code, or converted to UPF format
     Using radial grid of  887 points,  6 beta functions with:
                l(1) =   0
                l(2) =   0
                l(3) =   1
                l(4) =   1
                l(5) =   2
                l(6) =   2
     Q(r) pseudized with  6 coefficients,  rinner =    1.000   1.000   1.000
                                                       1.000   1.000

     PseudoPot. # 2 for Ti read from file:
     ./Ti.pbe-sp-van_ak.UPF
     MD5 check sum: f98fea3e8887528921fefa5636a534ca
     Pseudo is Ultrasoft, Zval = 12.0
     Generated by new atomic code, or converted to UPF format
     Using radial grid of  851 points,  6 beta functions with:
                l(1) =   0
                l(2) =   0
                l(3) =   1
                l(4) =   1
                l(5) =   2
                l(6) =   2
     Q(r) pseudized with  8 coefficients,  rinner =    1.000   1.000   1.000
                                                       1.000   1.000

     atomic species   valence    mass     pseudopotential
        Nb            13.00    92.90638     Nb( 1.00)
        Ti            12.00    47.86700     Ti( 1.00)

      4 Sym. Ops. (no inversion) found

   Cartesian axes

     site n.     atom                  positions (alat units)
         1           Ti  tau(   1) = (  -1.2667023   2.5047058   4.7024384  )
         2           Ti  tau(   2) = (  -1.5223794   0.7390706   2.3512192  )
         3           Ti  tau(   3) = (   1.6623285   2.5777642   4.7024384  )
         4           Ti  tau(   4) = (  -6.2295801  -1.9786332   2.3512192  )
         5           Nb  tau(   5) = (  -2.8212424  -0.0108268   4.7024384  )
         6           Nb  tau(   6) = (   2.9613255   3.3277390   2.3512192  )

     number of k points=   248  Marzari-Vanderbilt smearing, width (Ry)=  0.0200

     Number of k-points >= 100: set verbosity='high' to print them.

     Initial potential from superposition of free atoms

     starting charge   69.99436, renormalised to   74.00000
     Starting wfc are   66 randomized atomic wfcs

     Self-consistent Calculation

[...]

     iteration # 26     ecut=    40.00 Ry     beta=0.60
     Davidson diagonalization with overlap
     c_bands:  1 eigenvalues not converged
     c_bands:  1 eigenvalues not converged
     ethr =  4.63E-07,  avg # of iterations =  6.7

[...]

     total energy              =    -702.43912131 Ry
     Harris-Foulkes estimate   =    -702.43912131 Ry
     estimated scf accuracy    <          2.2E-12 Ry

     iteration # 45     ecut=    40.00 Ry     beta=0.60
     Davidson diagonalization with overlap
     ethr =  1.00E-13,  avg # of iterations =  1.0

     End of self-consistent calculation

     Number of k-points >= 100: set verbosity='high' to print the bands.

     the Fermi energy is    14.9403 ev

!    total energy              =    -702.43912131 Ry
     Harris-Foulkes estimate   =    -702.43912131 Ry
     estimated scf accuracy    <          8.6E-14 Ry

     The total energy is the sum of the following terms:

     one-electron contribution =    -199.55121615 Ry
     hartree contribution      =     128.18932028 Ry
     xc contribution           =     -94.96599611 Ry
     ewald contribution        =    -536.11209846 Ry
     smearing contrib. (-TS)   =       0.00086912 Ry

     convergence has been achieved in  45 iterations

     Forces acting on atoms (Ry/au):

     atom    1 type  2   force =    -0.00008972   -0.00005180    0.00000000
     atom    2 type  2   force =    -0.00006957   -0.00004017    0.00000000
     atom    3 type  2   force =     0.00008872    0.00005122    0.00000000
     atom    4 type  2   force =     0.00008895    0.00005136    0.00000000
     atom    5 type  1   force =     0.00000829    0.00000479    0.00000000
     atom    6 type  1   force =    -0.00002667   -0.00001540    0.00000000

     Total force =     0.000198     Total SCF correction =     0.000001

     entering subroutine stress ...

          total   stress  (Ry/bohr**3)                   (kbar)     P=   -4.57
  -0.00002081   0.00001314   0.00000000         -3.06      1.93      0.00
   0.00001314  -0.00003598   0.00000000          1.93     -5.29      0.00
   0.00000000   0.00000000  -0.00003643          0.00      0.00     -5.36

     General routines

     Parallel routines

   This run was terminated on:   7:41:35  28Apr2018

   JOB DONE.