     Program PWSCF v.6.3MaX starts on 27Jan2020 at 16:51:34

     R & G space division:  proc/nbgrp/npool/nimage =       4
     Waiting for input...
     Reading input from standard input

     Current dimensions of program PWSCF are:
     Max number of different atomic species (ntypx) = 10
     Max number of k-points (npk) =  40000
     Max angular momentum in pseudopotentials (lmaxx) =  3
     Message from routine iosys:
     minimal I/O required, wf_collect reset to FALSE

     Subspace diagonalization in iterative solution of the eigenvalue problem:
     a serial algorithm will be used

     bravais-lattice index     =            0
     lattice parameter (alat)  =       1.8897  a.u.
     unit-cell volume          =     808.3427 (a.u.)^3
     number of atoms/cell      =            6
     number of atomic types    =            2
     number of electrons       =        76.00
     number of Kohn-Sham states=           46
     kinetic-energy cutoff     =      40.0000  Ry
     charge density cutoff     =     400.0000  Ry
     convergence threshold     =      1.0E-10
     mixing beta               =       0.6000
     number of iterations used =            8  plain     mixing
     Exchange-correlation      = SLA PW PBE PBE ( 1  4  3  4 0 0)
     nstep                     =           50

     celldm(1)=   1.889726  celldm(2)=   0.000000  celldm(3)=   0.000000
     celldm(4)=   0.000000  celldm(5)=   0.000000  celldm(6)=   0.000000

     crystal axes: (cart. coord. in units of alat)
               a(1) = (  -3.045004   0.000000   4.972461 )
               a(2) = (  -1.522502   2.637051   4.972461 )
               a(3) = (  -4.567506   2.637051  -4.972461 )

     reciprocal axes: (cart. coord. in units 2 pi/alat)
               b(1) = ( -0.218938 -0.252808  0.067036 )
               b(2) = (  0.109469  0.316010  0.067036 )
               b(3) = ( -0.109469  0.063202 -0.067036 )

     PseudoPot. # 1 for Nb read from file:
     ./Nb.pbe-nsp-van.UPF
     MD5 check sum: 0a22fc7fb0ba19a08ca5db297a5d2854
     Pseudo is Ultrasoft + core correction, Zval = 13.0
     Generated by new atomic code, or converted to UPF format
     Using radial grid of  887 points,  6 beta functions with:
                l(1) =   0
                l(2) =   0
                l(3) =   1
                l(4) =   1
                l(5) =   2
                l(6) =   2
     Q(r) pseudized with  6 coefficients,  rinner =    1.000   1.000   1.000
                                                       1.000   1.000

     PseudoPot. # 2 for Ti read from file:
     ./Ti.pbe-sp-van_ak.UPF
     MD5 check sum: f98fea3e8887528921fefa5636a534ca
     Pseudo is Ultrasoft, Zval = 12.0
     Generated by new atomic code, or converted to UPF format
     Using radial grid of  851 points,  6 beta functions with:
                l(1) =   0
                l(2) =   0
                l(3) =   1
                l(4) =   1
                l(5) =   2
                l(6) =   2
     Q(r) pseudized with  8 coefficients,  rinner =    1.000   1.000   1.000
                                                       1.000   1.000

     atomic species   valence    mass     pseudopotential
        Nb            13.00    92.90638     Nb( 1.00)
        Ti            12.00    47.86700     Ti( 1.00)

      2 Sym. Ops. (no inversion) found

   Cartesian axes

     site n.     atom                  positions (alat units)
         1           Nb  tau(   1) = (  -4.5675063   2.6370512   0.0000000  )
         2           Ti  tau(   2) = (  -6.0900069   3.5160674   2.4862307  )
         3           Ti  tau(   3) = (  -4.5675063   2.6370512   4.9724614  )
         4           Nb  tau(   4) = (  -6.0900069   3.5160674   7.4586921  )
         5           Nb  tau(   5) = (  -9.1350127   5.2741024   4.9724614  )
         6           Nb  tau(   6) = (  -1.5225006   0.8790162   2.4862307  )

     number of k points=   398  Marzari-Vanderbilt smearing, width (Ry)=  0.0200

     Number of k-points >= 100: set verbosity='high' to print them.

     Initial potential from superposition of free atoms

     starting charge   73.98898, renormalised to   76.00000
     Starting wfcs are   72 randomized atomic wfcs

     Self-consistent Calculation

     iteration #  1     ecut=    40.00 Ry     beta= 0.60
     Davidson diagonalization with overlap
     ethr =  1.00E-02,  avg # of iterations =  2.7

     total energy              =    -666.30576496 Ry
     Harris-Foulkes estimate   =    -708.85187270 Ry
     estimated scf accuracy    <      53.04029028 Ry

[...]

     End of self-consistent calculation

     Number of k-points >= 100: set verbosity='high' to print the bands.

     the Fermi energy is    14.6571 ev

!    total energy              =    -704.90215683 Ry
     Harris-Foulkes estimate   =    -704.90215683 Ry
     estimated scf accuracy    <          1.9E-11 Ry

     The total energy is the sum of the following terms:

     one-electron contribution =    -177.62542852 Ry
     hartree contribution      =     117.53197899 Ry
     xc contribution           =    -102.15997593 Ry
     ewald contribution        =    -542.64465575 Ry
     smearing contrib. (-TS)   =      -0.00407561 Ry

     convergence has been achieved in  33 iterations

     Forces acting on atoms (cartesian axes, Ry/au):

     atom    1 type  1   force =     0.00208469   -0.00120360   -0.00705221
     atom    2 type  2   force =    -0.00002540    0.00001467    0.00582199
     atom    3 type  2   force =     0.00002569   -0.00001483   -0.00582184
     atom    4 type  1   force =    -0.00208481    0.00120367    0.00705240
     atom    5 type  1   force =    -0.00384475    0.00221977    0.01410692
     atom    6 type  1   force =     0.00384458   -0.00221967   -0.01410726

     Total force =     0.024825     Total SCF correction =     0.000013

     Computing stress (Cartesian axis) and pressure

          total   stress  (Ry/bohr**3)                   (kbar)     P= -118.74
  -0.00088478  -0.00004076  -0.00002103       -130.16     -6.00     -3.09
  -0.00004076  -0.00093184   0.00001214         -6.00   -137.08      1.79
  -0.00002103   0.00001214  -0.00060496         -3.09      1.79    -88.99

     BFGS Geometry Optimization

     number of scf cycles    =   1
     number of bfgs steps    =   0

     enthalpy new            =    -704.9021568287 Ry

     new trust radius        =       0.1326053129 bohr
     new conv_thr            =            1.0E-10 Ry

     new unit-cell volume =    760.37057 a.u.^3 (   112.67529 Ang^3 )
     density =      6.88766 g/cm^3

CELL_PARAMETERS (alat=  1.88972599)
  -2.980264967   0.004612309   4.898859141
  -1.494126860   2.578679203   4.898859141
  -4.466547898   2.578762816  -4.894055725

ATOMIC_POSITIONS (angstrom)
Nb      -4.468081162   2.579648047  -0.000473925
Ti      -5.960203992   3.441125626   2.455932984
Ti      -4.471762260   2.581773330   4.897426077
Nb      -5.963885306   3.443251034   7.353833008
Nb      -8.942934398   5.163205952   4.911016142
Nb      -1.489032093   0.859693142   2.442342664

     NEW-OLD atomic charge density approx. for the potential

     Check: negative/imaginary core charge=   -0.000001    0.000000
     extrapolated charge   71.33200, renormalised to   76.00000

[...]

     iteration #  1     ecut=    40.00 Ry     beta= 0.60
     Davidson diagonalization with overlap
     c_bands:  1 eigenvalues not converged
     c_bands:  1 eigenvalues not converged
     c_bands:  1 eigenvalues not converged
     c_bands:  2 eigenvalues not converged
     c_bands:  1 eigenvalues not converged
     c_bands:  1 eigenvalues not converged
     c_bands:  1 eigenvalues not converged
     c_bands:  1 eigenvalues not converged
     c_bands:  1 eigenvalues not converged
     c_bands:  1 eigenvalues not converged
     c_bands:  1 eigenvalues not converged
     c_bands:  1 eigenvalues not converged
     c_bands:  1 eigenvalues not converged
     c_bands:  1 eigenvalues not converged
     c_bands:  1 eigenvalues not converged
     c_bands:  1 eigenvalues not converged
     c_bands:  1 eigenvalues not converged
     c_bands:  2 eigenvalues not converged
     c_bands:  1 eigenvalues not converged
     c_bands:  2 eigenvalues not converged
     c_bands:  2 eigenvalues not converged
     c_bands:  1 eigenvalues not converged
     c_bands:  1 eigenvalues not converged
     c_bands:  1 eigenvalues not converged
     c_bands:  1 eigenvalues not converged
     c_bands:  1 eigenvalues not converged
     c_bands:  1 eigenvalues not converged
     c_bands:  1 eigenvalues not converged
     c_bands:  1 eigenvalues not converged
     c_bands:  1 eigenvalues not converged
     c_bands:  1 eigenvalues not converged
     c_bands:  1 eigenvalues not converged
     c_bands:  1 eigenvalues not converged
     c_bands:  1 eigenvalues not converged
     c_bands:  1 eigenvalues not converged
     c_bands:  1 eigenvalues not converged
     c_bands:  1 eigenvalues not converged
     c_bands:  1 eigenvalues not converged
     c_bands:  1 eigenvalues not converged
     c_bands:  1 eigenvalues not converged
     c_bands:  2 eigenvalues not converged
     c_bands:  1 eigenvalues not converged
     c_bands:  1 eigenvalues not converged
     c_bands:  1 eigenvalues not converged
     c_bands:  1 eigenvalues not converged
     c_bands:  1 eigenvalues not converged
     c_bands:  1 eigenvalues not converged
     c_bands:  1 eigenvalues not converged
     c_bands:  2 eigenvalues not converged
     c_bands:  1 eigenvalues not converged
     c_bands:  1 eigenvalues not converged
     c_bands:  2 eigenvalues not converged
     c_bands:  1 eigenvalues not converged
     c_bands:  1 eigenvalues not converged
     c_bands:  1 eigenvalues not converged
     c_bands:  1 eigenvalues not converged
     c_bands:  1 eigenvalues not converged
     c_bands:  1 eigenvalues not converged
     c_bands:  1 eigenvalues not converged
     c_bands:  1 eigenvalues not converged
[...]
     c_bands:  1 eigenvalues not converged
     c_bands:  1 eigenvalues not converged
     c_bands:  1 eigenvalues not converged
     c_bands:  1 eigenvalues not converged
     c_bands:  1 eigenvalues not converged
     c_bands:  1 eigenvalues not converged
     c_bands:  1 eigenvalues not converged
     c_bands:  1 eigenvalues not converged
     c_bands:  1 eigenvalues not converged
     c_bands:  1 eigenvalues not converged
     c_bands:  1 eigenvalues not converged
     c_bands:  1 eigenvalues not converged
     c_bands:  1 eigenvalues not converged
     c_bands:  1 eigenvalues not converged
     c_bands:  1 eigenvalues not converged
     ethr =  1.00E-06,  avg # of iterations = 16.1

[...]

     enthalpy old            =    -704.9021568287 Ry
     enthalpy new            =    -704.9321090269 Ry

     CASE: enthalpy_new < enthalpy_old

[...]

     WARNING: bfgs curvature condition failed, Theta= 0.951
     new trust radius        =       0.0496301362 bohr
     new conv_thr            =            1.0E-10 Ry

[...]

     NEW-OLD atomic charge density approx. for the potential

     Check: negative/imaginary core charge=   -0.000001    0.000000
     extrapolated charge   76.17348, renormalised to   76.00000

[...]

     NEW-OLD atomic charge density approx. for the potential
     extrapolated charge   76.27814, renormalised to   76.00000

[...]

     WARNING: bfgs curvature condition failed, Theta= 0.860
     new trust radius        =       0.0204317065 bohr
     new conv_thr            =            1.0E-10 Ry

[...]

     Threshold (ethr) on eigenvalues was too large:
     Diagonalizing with lowered threshold

     Davidson diagonalization with overlap
     ethr =  4.87E-08,  avg # of iterations =  2.0

[...]

     Total force =     0.000173     Total SCF correction =     0.000022
     SCF correction compared to forces is large: reduce conv_thr to get better values

[...]

     small trust_radius: resetting bfgs history

[...]

     number of scf cycles    =  43
     number of bfgs steps    =  42

     enthalpy old            =    -704.9695786867 Ry
     enthalpy new            =    -704.9695786933 Ry

     CASE: enthalpy_new < enthalpy_old

     Message from routine bfgs:
     history already reset at previous step: stopping
     small trust_radius: resetting bfgs history

     new trust radius        =       0.0000228254 bohr
     new conv_thr            =            1.6E-12 Ry

     new unit-cell volume =    728.66352 a.u.^3 (   107.97679 Ang^3 )
     density =      7.18737 g/cm^3

[...]

ATOMIC_POSITIONS (angstrom)
Nb      -4.381139537   2.529452281   0.635789257
Ti      -6.197271901   3.577996840   3.378528754
Ti      -4.909376678   2.834430114   5.705874372
Nb      -6.725509671   3.882975034   8.448614705
Nb      -9.356611324   5.402042421   6.394226864
Nb      -1.750039471   1.010385811   2.690176211

     NEW-OLD atomic charge density approx. for the potential
     extrapolated charge   75.99962, renormalised to   76.00000

[...]

     Threshold (ethr) on eigenvalues was too large:
     Diagonalizing with lowered threshold

     Davidson diagonalization with overlap
     ethr =  9.85E-12,  avg # of iterations =  2.6

[...]

     bfgs converged in  44 scf cycles and  43 bfgs steps
     (criteria: energy <  1.0E-10 Ry, force <  1.0E-05Ry/Bohr, cell <  1.0E-03kbar)

     End of BFGS Geometry Optimization

     Final enthalpy =    -704.9695786958 Ry
Begin final coordinates
     new unit-cell volume =    728.66352 a.u.^3 (   107.97679 Ang^3 )
     density =      7.18737 g/cm^3

CELL_PARAMETERS (alat=  1.88972599)
  -3.453482770   0.347468456   5.358049758
  -2.027657917   2.817069737   5.358049755
  -3.887025379   2.244175362  -4.365843361

ATOMIC_POSITIONS (angstrom)
Nb      -4.381139537   2.529452281   0.635789257
Ti      -6.197271901   3.577996840   3.378528754
Ti      -4.909376678   2.834430114   5.705874372
Nb      -6.725509671   3.882975034   8.448614705
Nb      -9.356611324   5.402042421   6.394226864
Nb      -1.750039471   1.010385811   2.690176211
End final coordinates

     A final scf calculation at the relaxed structure.
     The G-vectors are recalculated for the final unit cell
     Results may differ from those at the preceding step.

     bravais-lattice index     =            0
     lattice parameter (alat)  =       1.8897  a.u.
     unit-cell volume          =     728.6635 (a.u.)^3
     number of atoms/cell      =            6
     number of atomic types    =            2
     number of electrons       =        76.00
     number of Kohn-Sham states=           46
     kinetic-energy cutoff     =      40.0000  Ry
     charge density cutoff     =     400.0000  Ry
     convergence threshold     =      1.6E-12
     mixing beta               =       0.6000
     number of iterations used =            8  plain     mixing
     Exchange-correlation      = SLA PW PBE PBE ( 1  4  3  4 0 0)

     celldm(1)=   1.889726  celldm(2)=   0.000000  celldm(3)=   0.000000
     celldm(4)=   0.000000  celldm(5)=   0.000000  celldm(6)=   0.000000

     crystal axes: (cart. coord. in units of alat)
               a(1) = (  -3.453483   0.347468   5.358050 )
               a(2) = (  -2.027658   2.817070   5.358050 )
               a(3) = (  -3.887025   2.244175  -4.365843 )

     reciprocal axes: (cart. coord. in units 2 pi/alat)
               b(1) = ( -0.225264 -0.274867  0.059268 )
               b(2) = (  0.125410  0.332518  0.059268 )
               b(3) = ( -0.122547  0.070753 -0.083575 )

     PseudoPot. # 1 for Nb read from file:
     ./Nb.pbe-nsp-van.UPF
     MD5 check sum: 0a22fc7fb0ba19a08ca5db297a5d2854
     Pseudo is Ultrasoft + core correction, Zval = 13.0
     Generated by new atomic code, or converted to UPF format
     Using radial grid of  887 points,  6 beta functions with:
                l(1) =   0
                l(2) =   0
                l(3) =   1
                l(4) =   1
                l(5) =   2
                l(6) =   2
     Q(r) pseudized with  6 coefficients,  rinner =    1.000   1.000   1.000
                                                       1.000   1.000

     PseudoPot. # 2 for Ti read from file:
     ./Ti.pbe-sp-van_ak.UPF
     MD5 check sum: f98fea3e8887528921fefa5636a534ca
     Pseudo is Ultrasoft, Zval = 12.0
     Generated by new atomic code, or converted to UPF format
     Using radial grid of  851 points,  6 beta functions with:
                l(1) =   0
                l(2) =   0
                l(3) =   1
                l(4) =   1
                l(5) =   2
                l(6) =   2
     Q(r) pseudized with  8 coefficients,  rinner =    1.000   1.000   1.000
                                                       1.000   1.000

     atomic species   valence    mass     pseudopotential
        Nb            13.00    92.90638     Nb( 1.00)
        Ti            12.00    47.86700     Ti( 1.00)

      2 Sym. Ops. (no inversion) found

   Cartesian axes

     site n.     atom                  positions (alat units)
         1           Nb  tau(   1) = (  -4.3811399   2.5294525   0.6357893  )
         2           Ti  tau(   2) = (  -6.1972724   3.5779971   3.3785290  )
         3           Ti  tau(   3) = (  -4.9093771   2.8344303   5.7058748  )
         4           Nb  tau(   4) = (  -6.7255102   3.8829753   8.4486153  )
         5           Nb  tau(   5) = (  -9.3566120   5.4020428   6.3942274  )
         6           Nb  tau(   6) = (  -1.7500396   1.0103859   2.6901764  )

     number of k points=   398  Marzari-Vanderbilt smearing, width (Ry)=  0.0200

     Number of k-points >= 100: set verbosity='high' to print them.

     Check: negative/imaginary core charge=   -0.000001    0.000000

     Initial potential from superposition of free atoms

     starting charge   73.98898, renormalised to   76.00000
     Starting wfcs are   72 randomized atomic wfcs

     Self-consistent Calculation

[...]

     iteration # 20     ecut=    40.00 Ry     beta= 0.60
     Davidson diagonalization with overlap
     c_bands:  1 eigenvalues not converged
     c_bands:  1 eigenvalues not converged
     c_bands:  1 eigenvalues not converged
     ethr =  3.36E-06,  avg # of iterations =  5.8

[...]

     total energy              =    -704.96894269 Ry
     Harris-Foulkes estimate   =    -704.96894269 Ry
     estimated scf accuracy    <          3.4E-12 Ry

     iteration # 36     ecut=    40.00 Ry     beta= 0.60
     Davidson diagonalization with overlap
     ethr =  1.00E-13,  avg # of iterations =  1.0

     End of self-consistent calculation

     Number of k-points >= 100: set verbosity='high' to print the bands.

     the Fermi energy is    16.3554 ev

!    total energy              =    -704.96894269 Ry
     Harris-Foulkes estimate   =    -704.96894269 Ry
     estimated scf accuracy    <          1.0E-12 Ry

     The total energy is the sum of the following terms:

     one-electron contribution =    -152.61822656 Ry
     hartree contribution      =     110.86216001 Ry
     xc contribution           =    -102.81211286 Ry
     ewald contribution        =    -560.40346035 Ry
     smearing contrib. (-TS)   =       0.00269708 Ry

     convergence has been achieved in  36 iterations

     Forces acting on atoms (cartesian axes, Ry/au):

     atom    1 type  1   force =     0.00004915   -0.00002838   -0.00003874
     atom    2 type  2   force =    -0.00008299    0.00004792   -0.00010296
     atom    3 type  2   force =     0.00007992   -0.00004614    0.00011970
     atom    4 type  1   force =    -0.00005037    0.00002908    0.00003210
     atom    5 type  1   force =     0.00002468   -0.00001425    0.00005128
     atom    6 type  1   force =    -0.00002040    0.00001178   -0.00006138

     Total force =     0.000244     Total SCF correction =     0.000004

     Computing stress (Cartesian axis) and pressure

          total   stress  (Ry/bohr**3)                   (kbar)     P=   -0.59
  -0.00000573  -0.00000397  -0.00001937         -0.84     -0.58     -2.85
  -0.00000397  -0.00001032   0.00001118         -0.58     -1.52      1.64
  -0.00001937   0.00001118   0.00000408         -2.85      1.64      0.60

     General routines

     Parallel routines

      41h

   This run was terminated on:   8:33:23  28Jan2020

   JOB DONE.