     Program PWSCF v.6.0 (svn rev. 13079) starts on  1May2018 at 19:45:48

     Current dimensions of program PWSCF are:
     Max number of different atomic species (ntypx) = 10
     Max number of k-points (npk) =  40000
     Max angular momentum in pseudopotentials (lmaxx) =  3

     Subspace diagonalization in iterative solution of the eigenvalue problem:
     a serial algorithm will be used

     bravais-lattice index     =            0
     lattice parameter (alat)  =       1.8897  a.u.
     unit-cell volume          =     586.6735 (a.u.)^3
     number of atoms/cell      =            4
     number of atomic types    =            2
     number of electrons       =        49.00
     number of Kohn-Sham states=           30
     kinetic-energy cutoff     =      50.0000  Ry
     charge density cutoff     =     500.0000  Ry
     convergence threshold     =      1.0E-10
     mixing beta               =       0.6000
     number of iterations used =            8  plain     mixing
     Exchange-correlation      = SLA  PW   PBE  PBE ( 1  4  3  4 0 0)
     nstep                     =           50

     celldm(1)=   1.889726  celldm(2)=   0.000000  celldm(3)=   0.000000
     celldm(4)=   0.000000  celldm(5)=   0.000000  celldm(6)=   0.000000

     crystal axes: (cart. coord. in units of alat)
               a(1) = (  -1.758031   1.758031  -1.758031 )
               a(2) = (  -1.758031  -1.758031   1.758031 )
               a(3) = (   0.000000   7.032126   7.032126 )

     reciprocal axes: (cart. coord. in units 2 pi/alat)
               b(1) = ( -0.284409  0.142205 -0.142205 )
               b(2) = ( -0.284409 -0.142205  0.142205 )
               b(3) = (  0.000000  0.071102  0.071102 )

     PseudoPot. # 1 for Nb read from file:
     ./Nb.pbe-nsp-van.UPF
     MD5 check sum: 0a22fc7fb0ba19a08ca5db297a5d2854
     Pseudo is Ultrasoft + core correction, Zval = 13.0
     Generated by new atomic code, or converted to UPF format
     Using radial grid of  887 points,  6 beta functions with:
                l(1) =   0
                l(2) =   0
                l(3) =   1
                l(4) =   1
                l(5) =   2
                l(6) =   2
     Q(r) pseudized with  6 coefficients,  rinner =    1.000   1.000   1.000
                                                       1.000   1.000

     PseudoPot. # 2 for Ti read from file:
     ./Ti.pbe-sp-van_ak.UPF
     MD5 check sum: f98fea3e8887528921fefa5636a534ca
     Pseudo is Ultrasoft, Zval = 12.0
     Generated by new atomic code, or converted to UPF format
     Using radial grid of  851 points,  6 beta functions with:
                l(1) =   0
                l(2) =   0
                l(3) =   1
                l(4) =   1
                l(5) =   2
                l(6) =   2
     Q(r) pseudized with  8 coefficients,  rinner =    1.000   1.000   1.000
                                                       1.000   1.000

     atomic species   valence    mass     pseudopotential
        Nb            13.00    92.90638     Nb( 1.00)
        Ti            12.00    47.86700     Ti( 1.00)

      8 Sym. Ops., with inversion, found

   Cartesian axes

     site n.     atom                  positions (alat units)
         1           Ti  tau(   1) = (  -1.7580316   1.7580316   1.7580316  )
         2           Ti  tau(   2) = (  -3.5160633   3.5160633   3.5160633  )
         3           Ti  tau(   3) = (  -1.7580316   5.2740949   5.2740949  )
         4           Nb  tau(   4) = (  -3.5160633   7.0321265   7.0321265  )

     number of k points=   400  Marzari-Vanderbilt smearing, width (Ry)=  0.0200

     Number of k-points >= 100: set verbosity='high' to print them.

     Initial potential from superposition of free atoms

     starting charge   45.99713, renormalised to   49.00000
     Starting wfc are   43 randomized atomic wfcs

     Self-consistent Calculation

     iteration #  1     ecut=    50.00 Ry     beta=0.60
     Davidson diagonalization with overlap
     ethr =  1.00E-02,  avg # of iterations =  4.1

     total energy              =    -400.38453972 Ry
     Harris-Foulkes estimate   =    -475.11224565 Ry
     estimated scf accuracy    <      90.87833092 Ry

[...]

     iteration # 26     ecut=    50.00 Ry     beta=0.60
     Davidson diagonalization with overlap
     c_bands:  1 eigenvalues not converged
     c_bands:  1 eigenvalues not converged
     ethr =  1.16E-05,  avg # of iterations =  7.8

[...]

     End of self-consistent calculation

     Number of k-points >= 100: set verbosity='high' to print the bands.

     the Fermi energy is    11.0638 ev

!    total energy              =    -467.78634448 Ry
     Harris-Foulkes estimate   =    -467.78634448 Ry
     estimated scf accuracy    <          6.9E-12 Ry

     The total energy is the sum of the following terms:

     one-electron contribution =    -177.73405440 Ry
     hartree contribution      =     100.02376013 Ry
     xc contribution           =     -61.37576259 Ry
     ewald contribution        =    -328.69891923 Ry
     smearing contrib. (-TS)   =      -0.00136839 Ry

     convergence has been achieved in  40 iterations

     Forces acting on atoms (Ry/au):

     atom    1 type  2   force =    -0.00000000   -0.00681640   -0.00681640
     atom    2 type  2   force =     0.00000000    0.00000000    0.00000000
     atom    3 type  2   force =     0.00000000    0.00681640    0.00681640
     atom    4 type  1   force =     0.00000000    0.00000000    0.00000000

     Total force =     0.013633     Total SCF correction =     0.000002

     entering subroutine stress ...

          total   stress  (Ry/bohr**3)                   (kbar)     P= -182.81
  -0.00122438   0.00000000   0.00000000       -180.11      0.00      0.00
   0.00000000  -0.00125186   0.00001293          0.00   -184.15      1.90
   0.00000000   0.00001293  -0.00125186          0.00      1.90   -184.15

     BFGS Geometry Optimization

     number of scf cycles    =   1
     number of bfgs steps    =   0

     enthalpy new            =    -467.7863444800 Ry

     new trust radius        =       0.1516166069 bohr
     new conv_thr            =            1.0E-10 Ry

     new unit-cell volume =    533.67503 a.u.^3 (    79.08248 Ang^3 )

CELL_PARAMETERS (alat=  1.88972599)
  -1.704218889   1.702443086  -1.702443086
  -1.704218889  -1.702443086   1.702443086
   0.000000000   6.814318170   6.814318170

ATOMIC_POSITIONS (angstrom)
Ti      -1.704218889   1.700084184   1.700084184
Ti      -3.408437777   3.407159085   3.407159085
Ti      -1.704218889   5.114233985   5.114233985
Nb      -3.408437777   6.814318170   6.814318170

     NEW-OLD atomic charge density approx. for the potential
     extrapolated charge   44.43210, renormalised to   49.00000

[...]

     enthalpy old            =    -467.7863444800 Ry
     enthalpy new            =    -467.8427880404 Ry

     CASE: enthalpy_new < enthalpy_old

[...]

     Threshold (ethr) on eigenvalues was too large:
     Diagonalizing with lowered threshold

     Davidson diagonalization with overlap
     ethr =  1.73E-08,  avg # of iterations =  1.9

[...]

     Total force =     0.000000     Total SCF correction =     0.000000
     SCF correction compared to forces is large: reduce conv_thr to get better values

[...]

     small trust_radius: resetting bfgs history

[...]

     number of scf cycles    =  23
     number of bfgs steps    =  22

     enthalpy old            =    -467.8727740129 Ry
     enthalpy new            =    -467.8727740129 Ry

     CASE: enthalpy_new < enthalpy_old

     Message from routine bfgs:
     history already reset at previous step: stopping
     small trust_radius: resetting bfgs history

     new trust radius        =       0.0000021064 bohr
     new conv_thr            =            1.0E-12 Ry

     new unit-cell volume =    469.28529 a.u.^3 (    69.54090 Ang^3 )

[...]

ATOMIC_POSITIONS (angstrom)
Ti      -1.658958965   1.625330477   1.625330477
Ti      -3.317917930   3.236821035   3.236821035
Ti      -1.658958965   4.848311593   4.848311593
Nb      -3.317917930   6.473642070   6.473642070

     NEW-OLD atomic charge density approx. for the potential
     extrapolated charge   49.00005, renormalised to   49.00000

[...]

     Threshold (ethr) on eigenvalues was too large:
     Diagonalizing with lowered threshold

     Davidson diagonalization with overlap
     ethr =  1.13E-12,  avg # of iterations =  2.4

[...]

     Total force =     0.000000     Total SCF correction =     0.000001
     SCF correction compared to forces is large: reduce conv_thr to get better values

[...]

     bfgs converged in  24 scf cycles and  23 bfgs steps
     (criteria: energy <  1.0E-10, force <  1.0E-05, cell <  1.0E-03)

     End of BFGS Geometry Optimization

     Final enthalpy =    -467.8727740129 Ry
Begin final coordinates
     new unit-cell volume =    469.28529 a.u.^3 (    69.54090 Ang^3 )

CELL_PARAMETERS (alat=  1.88972599)
  -1.658958965   1.618810878  -1.618810878
  -1.658958965  -1.618810878   1.618810878
   0.000000000   6.473642070   6.473642070

ATOMIC_POSITIONS (angstrom)
Ti      -1.658958965   1.625330477   1.625330477
Ti      -3.317917930   3.236821035   3.236821035
Ti      -1.658958965   4.848311593   4.848311593
Nb      -3.317917930   6.473642070   6.473642070
End final coordinates

     A final scf calculation at the relaxed structure.
     The G-vectors are recalculated for the final unit cell
     Results may differ from those at the preceding step.

   Info: using nr1, nr2, nr3 values from input

   Info: using nr1, nr2, nr3 values from input

     bravais-lattice index     =            0
     lattice parameter (alat)  =       1.8897  a.u.
     unit-cell volume          =     469.2853 (a.u.)^3
     number of atoms/cell      =            4
     number of atomic types    =            2
     number of electrons       =        49.00
     number of Kohn-Sham states=           30
     kinetic-energy cutoff     =      50.0000  Ry
     charge density cutoff     =     500.0000  Ry
     convergence threshold     =      1.0E-12
     mixing beta               =       0.6000
     number of iterations used =            8  plain     mixing
     Exchange-correlation      = SLA  PW   PBE  PBE ( 1  4  3  4 0 0)

     celldm(1)=   1.889726  celldm(2)=   0.000000  celldm(3)=   0.000000
     celldm(4)=   0.000000  celldm(5)=   0.000000  celldm(6)=   0.000000

     crystal axes: (cart. coord. in units of alat)
               a(1) = (  -1.658959   1.618811  -1.618811 )
               a(2) = (  -1.658959  -1.618811   1.618811 )
               a(3) = (   0.000000   6.473642   6.473642 )

     reciprocal axes: (cart. coord. in units 2 pi/alat)
               b(1) = ( -0.301394  0.154434 -0.154434 )
               b(2) = ( -0.301394 -0.154434  0.154434 )
               b(3) = (  0.000000  0.077236  0.077236 )

     PseudoPot. # 1 for Nb read from file:
     ./Nb.pbe-nsp-van.UPF
     MD5 check sum: 0a22fc7fb0ba19a08ca5db297a5d2854
     Pseudo is Ultrasoft + core correction, Zval = 13.0
     Generated by new atomic code, or converted to UPF format
     Using radial grid of  887 points,  6 beta functions with:
                l(1) =   0
                l(2) =   0
                l(3) =   1
                l(4) =   1
                l(5) =   2
                l(6) =   2
     Q(r) pseudized with  6 coefficients,  rinner =    1.000   1.000   1.000
                                                       1.000   1.000

     PseudoPot. # 2 for Ti read from file:
     ./Ti.pbe-sp-van_ak.UPF
     MD5 check sum: f98fea3e8887528921fefa5636a534ca
     Pseudo is Ultrasoft, Zval = 12.0
     Generated by new atomic code, or converted to UPF format
     Using radial grid of  851 points,  6 beta functions with:
                l(1) =   0
                l(2) =   0
                l(3) =   1
                l(4) =   1
                l(5) =   2
                l(6) =   2
     Q(r) pseudized with  8 coefficients,  rinner =    1.000   1.000   1.000
                                                       1.000   1.000

     atomic species   valence    mass     pseudopotential
        Nb            13.00    92.90638     Nb( 1.00)
        Ti            12.00    47.86700     Ti( 1.00)

      8 Sym. Ops., with inversion, found

   Cartesian axes

     site n.     atom                  positions (alat units)
         1           Ti  tau(   1) = (  -1.6589591   1.6253306   1.6253306  )
         2           Ti  tau(   2) = (  -3.3179182   3.2368213   3.2368213  )
         3           Ti  tau(   3) = (  -1.6589591   4.8483120   4.8483120  )
         4           Nb  tau(   4) = (  -3.3179182   6.4736426   6.4736426  )

     number of k points=   400  Marzari-Vanderbilt smearing, width (Ry)=  0.0200

     Number of k-points >= 100: set verbosity='high' to print them.

     Initial potential from superposition of free atoms

     starting charge   45.99713, renormalised to   49.00000
     Starting wfc are   43 randomized atomic wfcs

     Self-consistent Calculation

     iteration #  1     ecut=    50.00 Ry     beta=0.60
     Davidson diagonalization with overlap
     c_bands:  1 eigenvalues not converged
     c_bands:  2 eigenvalues not converged
     c_bands:  3 eigenvalues not converged
     c_bands:  3 eigenvalues not converged
     c_bands:  2 eigenvalues not converged
     c_bands:  2 eigenvalues not converged
     c_bands:  1 eigenvalues not converged
     c_bands:  1 eigenvalues not converged
     c_bands:  1 eigenvalues not converged
     c_bands:  1 eigenvalues not converged
     c_bands:  1 eigenvalues not converged
     c_bands:  1 eigenvalues not converged
     c_bands:  1 eigenvalues not converged
     c_bands:  1 eigenvalues not converged
     c_bands:  1 eigenvalues not converged
     c_bands:  1 eigenvalues not converged
     c_bands:  1 eigenvalues not converged
     c_bands:  1 eigenvalues not converged
     c_bands:  1 eigenvalues not converged
     c_bands:  1 eigenvalues not converged
     c_bands:  1 eigenvalues not converged
     c_bands:  1 eigenvalues not converged
     c_bands:  1 eigenvalues not converged
     c_bands:  2 eigenvalues not converged
     c_bands:  2 eigenvalues not converged
     c_bands:  1 eigenvalues not converged
     c_bands:  2 eigenvalues not converged
     c_bands:  2 eigenvalues not converged
     c_bands:  1 eigenvalues not converged
     c_bands:  1 eigenvalues not converged
     c_bands:  1 eigenvalues not converged
     c_bands:  1 eigenvalues not converged
     c_bands:  1 eigenvalues not converged
     c_bands:  1 eigenvalues not converged
     c_bands:  1 eigenvalues not converged
     c_bands:  1 eigenvalues not converged
     c_bands:  1 eigenvalues not converged
     c_bands:  1 eigenvalues not converged
     c_bands:  2 eigenvalues not converged
     c_bands:  2 eigenvalues not converged
     c_bands:  2 eigenvalues not converged
     c_bands:  3 eigenvalues not converged
     c_bands:  3 eigenvalues not converged
     c_bands:  2 eigenvalues not converged
     c_bands:  2 eigenvalues not converged
     c_bands:  1 eigenvalues not converged
     c_bands:  3 eigenvalues not converged
     c_bands:  3 eigenvalues not converged
     c_bands:  1 eigenvalues not converged
     c_bands:  1 eigenvalues not converged
     c_bands:  1 eigenvalues not converged
     c_bands:  1 eigenvalues not converged
     c_bands:  2 eigenvalues not converged
     c_bands:  1 eigenvalues not converged
     c_bands:  1 eigenvalues not converged
     c_bands:  1 eigenvalues not converged
     c_bands:  1 eigenvalues not converged
     c_bands:  1 eigenvalues not converged
     c_bands:  1 eigenvalues not converged
     c_bands:  1 eigenvalues not converged
[...]
     c_bands:  2 eigenvalues not converged
     c_bands:  2 eigenvalues not converged
     c_bands:  2 eigenvalues not converged
     c_bands:  1 eigenvalues not converged
     c_bands:  2 eigenvalues not converged
     c_bands:  2 eigenvalues not converged
     c_bands:  1 eigenvalues not converged
     c_bands:  1 eigenvalues not converged
     c_bands:  1 eigenvalues not converged
     c_bands:  1 eigenvalues not converged
     c_bands:  1 eigenvalues not converged
     c_bands:  1 eigenvalues not converged
     c_bands:  1 eigenvalues not converged
     c_bands:  1 eigenvalues not converged
     c_bands:  1 eigenvalues not converged
     ethr =  1.00E-06,  avg # of iterations = 17.6

[...]

     total energy              =    -467.87234749 Ry
     Harris-Foulkes estimate   =    -467.87234749 Ry
     estimated scf accuracy    <          1.3E-12 Ry

     iteration # 35     ecut=    50.00 Ry     beta=0.60
     Davidson diagonalization with overlap
     ethr =  1.00E-13,  avg # of iterations =  1.0

     End of self-consistent calculation

     Number of k-points >= 100: set verbosity='high' to print the bands.

     the Fermi energy is    14.5036 ev

!    total energy              =    -467.87234749 Ry
     Harris-Foulkes estimate   =    -467.87234749 Ry
     estimated scf accuracy    <          1.1E-13 Ry

     The total energy is the sum of the following terms:

     one-electron contribution =    -139.72787144 Ry
     hartree contribution      =      88.10055885 Ry
     xc contribution           =     -62.05653885 Ry
     ewald contribution        =    -354.18781751 Ry
     smearing contrib. (-TS)   =      -0.00067854 Ry

     convergence has been achieved in  35 iterations

     Forces acting on atoms (Ry/au):

     atom    1 type  2   force =     0.00000000    0.00000188    0.00000188
     atom    2 type  2   force =     0.00000000    0.00000000   -0.00000000
     atom    3 type  2   force =    -0.00000000   -0.00000188   -0.00000188
     atom    4 type  1   force =     0.00000000    0.00000000    0.00000000

     Total force =     0.000004     Total SCF correction =     0.000000

     entering subroutine stress ...

          total   stress  (Ry/bohr**3)                   (kbar)     P=   -0.26
  -0.00000282  -0.00000000   0.00000000         -0.42     -0.00      0.00
  -0.00000000  -0.00000122   0.00000014         -0.00     -0.18      0.02
   0.00000000   0.00000014  -0.00000122          0.00      0.02     -0.18

     General routines

     Parallel routines

   This run was terminated on:   2:49:54   2May2018

   JOB DONE.