     Program PWSCF v.6.0 (svn rev. 13079) starts on  4May2018 at 10:24:46

     Current dimensions of program PWSCF are:
     Max number of different atomic species (ntypx) = 10
     Max number of k-points (npk) =  40000
     Max angular momentum in pseudopotentials (lmaxx) =  3

     Subspace diagonalization in iterative solution of the eigenvalue problem:
     a serial algorithm will be used

     Message from routine find_sym:
     Not a group! Trying with lower acceptance parameter...
     Message from routine find_sym:
     Still not a group! symmetry disabled

     bravais-lattice index     =            0
     lattice parameter (alat)  =       1.8897  a.u.
     unit-cell volume          =     808.3427 (a.u.)^3
     number of atoms/cell      =            6
     number of atomic types    =            2
     number of electrons       =        74.00
     number of Kohn-Sham states=           44
     kinetic-energy cutoff     =      40.0000  Ry
     charge density cutoff     =     400.0000  Ry
     convergence threshold     =      1.0E-10
     mixing beta               =       0.6000
     number of iterations used =            8  plain     mixing
     Exchange-correlation      = SLA  PW   PBE  PBE ( 1  4  3  4 0 0)
     nstep                     =           50

     celldm(1)=   1.889726  celldm(2)=   0.000000  celldm(3)=   0.000000
     celldm(4)=   0.000000  celldm(5)=   0.000000  celldm(6)=   0.000000

     crystal axes: (cart. coord. in units of alat)
               a(1) = (   3.045004   0.000000   4.972461 )
               a(2) = (  -1.522502   2.637051   4.972461 )
               a(3) = (  -1.522502  -2.637051   4.972461 )

     reciprocal axes: (cart. coord. in units 2 pi/alat)
               b(1) = (  0.218938  0.000000  0.067036 )
               b(2) = ( -0.109469  0.189606  0.067036 )
               b(3) = ( -0.109469 -0.189606  0.067036 )

     PseudoPot. # 1 for Nb read from file:
     ./Nb.pbe-nsp-van.UPF
     MD5 check sum: 0a22fc7fb0ba19a08ca5db297a5d2854
     Pseudo is Ultrasoft + core correction, Zval = 13.0
     Generated by new atomic code, or converted to UPF format
     Using radial grid of  887 points,  6 beta functions with:
                l(1) =   0
                l(2) =   0
                l(3) =   1
                l(4) =   1
                l(5) =   2
                l(6) =   2
     Q(r) pseudized with  6 coefficients,  rinner =    1.000   1.000   1.000
                                                       1.000   1.000

     PseudoPot. # 2 for Ti read from file:
     ./Ti.pbe-sp-van_ak.UPF
     MD5 check sum: f98fea3e8887528921fefa5636a534ca
     Pseudo is Ultrasoft, Zval = 12.0
     Generated by new atomic code, or converted to UPF format
     Using radial grid of  851 points,  6 beta functions with:
                l(1) =   0
                l(2) =   0
                l(3) =   1
                l(4) =   1
                l(5) =   2
                l(6) =   2
     Q(r) pseudized with  8 coefficients,  rinner =    1.000   1.000   1.000
                                                       1.000   1.000

     atomic species   valence    mass     pseudopotential
        Nb            13.00    92.90638     Nb( 1.00)
        Ti            12.00    47.86700     Ti( 1.00)

     No symmetry found

   Cartesian axes

     site n.     atom                  positions (alat units)
         1           Ti  tau(   1) = (   0.0000000   0.0000000   9.9449228  )
         2           Ti  tau(   2) = (   0.0000015  -1.7580350   7.4586921  )
         3           Ti  tau(   3) = (   0.0000000   0.0000000  14.9173841  )
         4           Ti  tau(   4) = (   1.5225036   0.8790162   7.4586921  )
         5           Nb  tau(   5) = (   0.0000000   0.0000000   4.9724614  )
         6           Nb  tau(   6) = (  -1.5225006   0.8790162   7.4586921  )

     number of k points=   868  Marzari-Vanderbilt smearing, width (Ry)=  0.0200

     Number of k-points >= 100: set verbosity='high' to print them.

     Initial potential from superposition of free atoms

     starting charge   69.99436, renormalised to   74.00000
     Starting wfc are   66 randomized atomic wfcs

     Self-consistent Calculation

     iteration #  1     ecut=    40.00 Ry     beta=0.60
     Davidson diagonalization with overlap
     ethr =  1.00E-02,  avg # of iterations =  3.3

     total energy              =    -697.95015661 Ry
     Harris-Foulkes estimate   =    -704.25680033 Ry
     estimated scf accuracy    <       8.20512944 Ry

[...]

     iteration # 11     ecut=    40.00 Ry     beta=0.60
     Davidson diagonalization with overlap
     c_bands:  1 eigenvalues not converged
     c_bands:  1 eigenvalues not converged
     ethr =  3.30E-06,  avg # of iterations =  4.9

[...]

     End of self-consistent calculation

     Number of k-points >= 100: set verbosity='high' to print the bands.

     the Fermi energy is    13.0006 ev

!    total energy              =    -702.38320042 Ry
     Harris-Foulkes estimate   =    -702.38320042 Ry
     estimated scf accuracy    <          5.4E-11 Ry

     The total energy is the sum of the following terms:

     one-electron contribution =    -231.18448134 Ry
     hartree contribution      =     137.68664809 Ry
     xc contribution           =     -94.33481754 Ry
     ewald contribution        =    -514.54414747 Ry
     smearing contrib. (-TS)   =      -0.00640217 Ry

     convergence has been achieved in  27 iterations

     Forces acting on atoms (Ry/au):

     atom    1 type  2   force =     0.00014244    0.00103507   -0.00245398
     atom    2 type  2   force =    -0.00096757    0.00039451   -0.00245369
     atom    3 type  2   force =     0.00096764   -0.00039449    0.00245363
     atom    4 type  2   force =    -0.00014242   -0.00103502    0.00245399
     atom    5 type  1   force =    -0.00159052   -0.00091833    0.00000007
     atom    6 type  1   force =     0.00159042    0.00091826   -0.00000001

     Total force =     0.005933     Total SCF correction =     0.000003

     entering subroutine stress ...

          total   stress  (Ry/bohr**3)                   (kbar)     P= -130.98
  -0.00089791   0.00000123   0.00000565       -132.09      0.18      0.83
   0.00000123  -0.00089934  -0.00000978          0.18   -132.30     -1.44
   0.00000565  -0.00000978  -0.00087400          0.83     -1.44   -128.57

     BFGS Geometry Optimization

     number of scf cycles    =   1
     number of bfgs steps    =   0

     enthalpy new            =    -702.3832004235 Ry

     new trust radius        =       0.1278549103 bohr
     new conv_thr            =            1.0E-10 Ry

     new unit-cell volume =    755.55327 a.u.^3 (   111.96144 Ang^3 )

CELL_PARAMETERS (alat=  1.88972599)
   2.977352319  -0.001121592   4.864243091
  -1.487542202   2.576498789   4.862953871
  -1.487704471  -2.579023030   4.864242870

ATOMIC_POSITIONS (angstrom)
Ti       0.001477283  -0.001894814   9.726356213
Ti       0.000499525  -1.720126675   7.294879394
Ti       0.002606384  -0.003850195  14.592709988
Ti       1.489333070   0.856940988   7.296990333
Nb      -0.000120906  -0.001690337   4.863813313
Nb      -1.486421127   0.857858042   7.295290171

     NEW-OLD atomic charge density approx. for the potential
     extrapolated charge   69.10959, renormalised to   74.00000

[...]

     enthalpy old            =    -702.3832004235 Ry
     enthalpy new            =    -702.4191917853 Ry

     CASE: enthalpy_new < enthalpy_old

[...]

     Threshold (ethr) on eigenvalues was too large:
     Diagonalizing with lowered threshold

     Davidson diagonalization with overlap
     ethr =  4.71E-08,  avg # of iterations =  2.9

[...]

     WARNING: bfgs curvature condition failed, Theta= 0.920
     new trust radius        =       0.0097288066 bohr
     new conv_thr            =            1.0E-10 Ry

[...]

     WARNING: bfgs curvature condition failed, Theta= 0.891
     new trust radius        =       0.0078036149 bohr
     new conv_thr            =            1.0E-10 Ry

[...]

     CASE: enthalpy_new > enthalpy_old

     new trust radius        =       0.0000574372 bohr

     trust_radius < trust_radius_min

     resetting bfgs history

     new conv_thr            =            2.9E-12 Ry

[...]

     number of scf cycles    =  35
     number of bfgs steps    =  33

     enthalpy old            =    -702.4429585027 Ry
     enthalpy new            =    -702.4429585124 Ry

     CASE: enthalpy_new < enthalpy_old

     WARNING: bfgs curvature condition failed, Theta= 0.979
     Message from routine bfgs:
     history already reset at previous step: stopping
     small trust_radius: resetting bfgs history

     new trust radius        =       0.0000678954 bohr
     new conv_thr            =            2.7E-12 Ry

     new unit-cell volume =    708.80470 a.u.^3 (   105.03402 Ang^3 )

[...]

ATOMIC_POSITIONS (angstrom)
Ti       0.045705715   0.200217119   9.518830489
Ti      -0.242872025  -1.616778055   7.114360983
Ti       0.017474509   0.248959189  14.298523150
Ti       1.351622900   0.895789826   7.153308762
Nb       0.168599038   0.179753605   4.763446322
Nb      -1.716221616   0.742775005   7.167925835

     NEW-OLD atomic charge density approx. for the potential
     extrapolated charge   74.00029, renormalised to   74.00000

[...]

     Threshold (ethr) on eigenvalues was too large:
     Diagonalizing with lowered threshold

     Davidson diagonalization with overlap
     ethr =  7.97E-12,  avg # of iterations =  4.6

[...]

     bfgs converged in  36 scf cycles and  34 bfgs steps
     (criteria: energy <  1.0E-10, force <  1.0E-05, cell <  1.0E-03)

     End of BFGS Geometry Optimization

     Final enthalpy =    -702.4429584797 Ry
Begin final coordinates
     new unit-cell volume =    708.80470 a.u.^3 (   105.03402 Ang^3 )

CELL_PARAMETERS (alat=  1.88972599)
   2.944950545   0.173479404   4.740765990
  -1.429570288   2.476265494   4.808883313
  -1.622721930  -2.463825186   4.740749443

ATOMIC_POSITIONS (angstrom)
Ti       0.045705715   0.200217119   9.518830489
Ti      -0.242872025  -1.616778055   7.114360983
Ti       0.017474509   0.248959189  14.298523150
Ti       1.351622900   0.895789826   7.153308762
Nb       0.168599038   0.179753605   4.763446322
Nb      -1.716221616   0.742775005   7.167925835
End final coordinates

     A final scf calculation at the relaxed structure.
     The G-vectors are recalculated for the final unit cell
     Results may differ from those at the preceding step.

   Info: using nr1, nr2, nr3 values from input

   Info: using nr1, nr2, nr3 values from input

     bravais-lattice index     =            0
     lattice parameter (alat)  =       1.8897  a.u.
     unit-cell volume          =     708.8047 (a.u.)^3
     number of atoms/cell      =            6
     number of atomic types    =            2
     number of electrons       =        74.00
     number of Kohn-Sham states=           44
     kinetic-energy cutoff     =      40.0000  Ry
     charge density cutoff     =     400.0000  Ry
     convergence threshold     =      2.7E-12
     mixing beta               =       0.6000
     number of iterations used =            8  plain     mixing
     Exchange-correlation      = SLA  PW   PBE  PBE ( 1  4  3  4 0 0)

     celldm(1)=   1.889726  celldm(2)=   0.000000  celldm(3)=   0.000000
     celldm(4)=   0.000000  celldm(5)=   0.000000  celldm(6)=   0.000000

     crystal axes: (cart. coord. in units of alat)
               a(1) = (   2.944951   0.173479   4.740766 )
               a(2) = (  -1.429570   2.476265   4.808883 )
               a(3) = (  -1.622722  -2.463825   4.740749 )

     reciprocal axes: (cart. coord. in units 2 pi/alat)
               b(1) = (  0.224571 -0.009771  0.071791 )
               b(2) = ( -0.119036  0.206164  0.066401 )
               b(3) = ( -0.103825 -0.199356  0.071791 )

     PseudoPot. # 1 for Nb read from file:
     ./Nb.pbe-nsp-van.UPF
     MD5 check sum: 0a22fc7fb0ba19a08ca5db297a5d2854
     Pseudo is Ultrasoft + core correction, Zval = 13.0
     Generated by new atomic code, or converted to UPF format
     Using radial grid of  887 points,  6 beta functions with:
                l(1) =   0
                l(2) =   0
                l(3) =   1
                l(4) =   1
                l(5) =   2
                l(6) =   2
     Q(r) pseudized with  6 coefficients,  rinner =    1.000   1.000   1.000
                                                       1.000   1.000

     PseudoPot. # 2 for Ti read from file:
     ./Ti.pbe-sp-van_ak.UPF
     MD5 check sum: f98fea3e8887528921fefa5636a534ca
     Pseudo is Ultrasoft, Zval = 12.0
     Generated by new atomic code, or converted to UPF format
     Using radial grid of  851 points,  6 beta functions with:
                l(1) =   0
                l(2) =   0
                l(3) =   1
                l(4) =   1
                l(5) =   2
                l(6) =   2
     Q(r) pseudized with  8 coefficients,  rinner =    1.000   1.000   1.000
                                                       1.000   1.000

     atomic species   valence    mass     pseudopotential
        Nb            13.00    92.90638     Nb( 1.00)
        Ti            12.00    47.86700     Ti( 1.00)

     No symmetry found

   Cartesian axes

     site n.     atom                  positions (alat units)
         1           Ti  tau(   1) = (   0.0457057   0.2002171   9.5188312  )
         2           Ti  tau(   2) = (  -0.2428720  -1.6167782   7.1143615  )
         3           Ti  tau(   3) = (   0.0174745   0.2489592  14.2985242  )
         4           Ti  tau(   4) = (   1.3516230   0.8957899   7.1533093  )
         5           Nb  tau(   5) = (   0.1685991   0.1797536   4.7634467  )
         6           Nb  tau(   6) = (  -1.7162217   0.7427751   7.1679264  )

     number of k points=   868  Marzari-Vanderbilt smearing, width (Ry)=  0.0200

     Number of k-points >= 100: set verbosity='high' to print them.

     Initial potential from superposition of free atoms

     starting charge   69.99436, renormalised to   74.00000
     Starting wfc are   66 randomized atomic wfcs

     Self-consistent Calculation

     iteration #  1     ecut=    40.00 Ry     beta=0.60
     Davidson diagonalization with overlap
     c_bands:  2 eigenvalues not converged
     c_bands:  2 eigenvalues not converged
     c_bands:  2 eigenvalues not converged
     c_bands:  2 eigenvalues not converged
     c_bands:  1 eigenvalues not converged
     c_bands:  1 eigenvalues not converged
     c_bands:  1 eigenvalues not converged
     c_bands:  1 eigenvalues not converged
     c_bands:  1 eigenvalues not converged
     c_bands:  1 eigenvalues not converged
     c_bands:  1 eigenvalues not converged
     c_bands:  1 eigenvalues not converged
     c_bands:  1 eigenvalues not converged
     c_bands:  1 eigenvalues not converged
     c_bands:  1 eigenvalues not converged
     c_bands:  2 eigenvalues not converged
     c_bands:  2 eigenvalues not converged
     c_bands:  2 eigenvalues not converged
     c_bands:  1 eigenvalues not converged
     c_bands:  2 eigenvalues not converged
     c_bands:  2 eigenvalues not converged
     c_bands:  2 eigenvalues not converged
     c_bands:  1 eigenvalues not converged
     c_bands:  1 eigenvalues not converged
     c_bands:  1 eigenvalues not converged
     c_bands:  2 eigenvalues not converged
     c_bands:  2 eigenvalues not converged
     c_bands:  2 eigenvalues not converged
     c_bands:  1 eigenvalues not converged
     c_bands:  1 eigenvalues not converged
     c_bands:  2 eigenvalues not converged
     c_bands:  2 eigenvalues not converged
     c_bands:  1 eigenvalues not converged
     c_bands:  1 eigenvalues not converged
     c_bands:  1 eigenvalues not converged
     c_bands:  1 eigenvalues not converged
     c_bands:  2 eigenvalues not converged
     c_bands:  1 eigenvalues not converged
     c_bands:  1 eigenvalues not converged
     c_bands:  1 eigenvalues not converged
     c_bands:  2 eigenvalues not converged
     c_bands:  1 eigenvalues not converged
     c_bands:  1 eigenvalues not converged
     c_bands:  1 eigenvalues not converged
     c_bands:  1 eigenvalues not converged
     c_bands:  1 eigenvalues not converged
     c_bands:  1 eigenvalues not converged
     c_bands:  1 eigenvalues not converged
     c_bands:  1 eigenvalues not converged
     c_bands:  1 eigenvalues not converged
     c_bands:  1 eigenvalues not converged
     c_bands:  2 eigenvalues not converged
     c_bands:  2 eigenvalues not converged
     c_bands:  1 eigenvalues not converged
     c_bands:  1 eigenvalues not converged
     c_bands:  1 eigenvalues not converged
     c_bands:  1 eigenvalues not converged
     c_bands:  1 eigenvalues not converged
     c_bands:  1 eigenvalues not converged
     c_bands:  1 eigenvalues not converged
[...]
     c_bands:  3 eigenvalues not converged
     c_bands:  1 eigenvalues not converged
     c_bands:  1 eigenvalues not converged
     c_bands:  1 eigenvalues not converged
     c_bands:  1 eigenvalues not converged
     c_bands:  1 eigenvalues not converged
     c_bands:  2 eigenvalues not converged
     c_bands:  3 eigenvalues not converged
     c_bands:  3 eigenvalues not converged
     c_bands:  1 eigenvalues not converged
     c_bands:  1 eigenvalues not converged
     c_bands:  1 eigenvalues not converged
     c_bands:  3 eigenvalues not converged
     c_bands:  1 eigenvalues not converged
     c_bands:  1 eigenvalues not converged
     ethr =  1.00E-06,  avg # of iterations = 18.4

[...]

     total energy              =    -702.43833473 Ry
     Harris-Foulkes estimate   =    -702.43833473 Ry
     estimated scf accuracy    <          7.8E-12 Ry

     iteration # 25     ecut=    40.00 Ry     beta=0.60
     Davidson diagonalization with overlap
     ethr =  1.00E-13,  avg # of iterations =  1.0

     End of self-consistent calculation

     Number of k-points >= 100: set verbosity='high' to print the bands.

     the Fermi energy is    15.0073 ev

!    total energy              =    -702.43833473 Ry
     Harris-Foulkes estimate   =    -702.43833473 Ry
     estimated scf accuracy    <          7.2E-13 Ry

     The total energy is the sum of the following terms:

     one-electron contribution =    -198.11296995 Ry
     hartree contribution      =     127.73172911 Ry
     xc contribution           =     -94.99241182 Ry
     ewald contribution        =    -537.06487510 Ry
     smearing contrib. (-TS)   =       0.00019304 Ry

     convergence has been achieved in  25 iterations

     Forces acting on atoms (Ry/au):

     atom    1 type  2   force =    -0.00007836    0.00002003    0.00005065
     atom    2 type  2   force =     0.00002332    0.00008498    0.00004534
     atom    3 type  2   force =    -0.00002294   -0.00008482   -0.00004513
     atom    4 type  2   force =     0.00007817   -0.00002003   -0.00005088
     atom    5 type  1   force =     0.00004627    0.00002622   -0.00000357
     atom    6 type  1   force =    -0.00004645   -0.00002637    0.00000360

     Total force =     0.000209     Total SCF correction =     0.000001

     entering subroutine stress ...

          total   stress  (Ry/bohr**3)                   (kbar)     P=   -4.85
  -0.00002586   0.00001153  -0.00000180         -3.80      1.70     -0.26
   0.00001153  -0.00003914   0.00000307          1.70     -5.76      0.45
  -0.00000180   0.00000307  -0.00003388         -0.26      0.45     -4.98

     General routines

     Parallel routines

   This run was terminated on:  14:31:32   7May2018

   JOB DONE.