     Program PWSCF v.6.3MaX starts on  8Feb2020 at 12:38:21

     R & G space division:  proc/nbgrp/npool/nimage =       4
     Waiting for input...
     Reading input from standard input

     Current dimensions of program PWSCF are:
     Max number of different atomic species (ntypx) = 10
     Max number of k-points (npk) =  40000
     Max angular momentum in pseudopotentials (lmaxx) =  3
     Message from routine iosys:
     minimal I/O required, wf_collect reset to FALSE

     Subspace diagonalization in iterative solution of the eigenvalue problem:
     a serial algorithm will be used

     bravais-lattice index     =            0
     lattice parameter (alat)  =       1.8897  a.u.
     unit-cell volume          =    1077.7903 (a.u.)^3
     number of atoms/cell      =            8
     number of atomic types    =            2
     number of electrons       =       103.00
     number of Kohn-Sham states=           62
     kinetic-energy cutoff     =      40.0000  Ry
     charge density cutoff     =     400.0000  Ry
     convergence threshold     =      1.0E-10
     mixing beta               =       0.6000
     number of iterations used =            8  plain     mixing
     Exchange-correlation      = SLA PW PBE PBE ( 1  4  3  4 0 0)
     nstep                     =           50

     celldm(1)=   1.889726  celldm(2)=   0.000000  celldm(3)=   0.000000
     celldm(4)=   0.000000  celldm(5)=   0.000000  celldm(6)=   0.000000

     crystal axes: (cart. coord. in units of alat)
               a(1) = (   1.522502   2.637051  -4.972461 )
               a(2) = (   1.522502  -2.637051  -4.972461 )
               a(3) = (  -6.090008   0.000000   0.000000 )

     reciprocal axes: (cart. coord. in units 2 pi/alat)
               b(1) = (  0.000000  0.189606 -0.100554 )
               b(2) = (  0.000000 -0.189606 -0.100554 )
               b(3) = ( -0.164203  0.000000 -0.050277 )

     PseudoPot. # 1 for Nb read from file:
     ./Nb.pbe-nsp-van.UPF
     MD5 check sum: 0a22fc7fb0ba19a08ca5db297a5d2854
     Pseudo is Ultrasoft + core correction, Zval = 13.0
     Generated by new atomic code, or converted to UPF format
     Using radial grid of  887 points,  6 beta functions with:
                l(1) =   0
                l(2) =   0
                l(3) =   1
                l(4) =   1
                l(5) =   2
                l(6) =   2
     Q(r) pseudized with  6 coefficients,  rinner =    1.000   1.000   1.000
                                                       1.000   1.000

     PseudoPot. # 2 for Ti read from file:
     ./Ti.pbe-sp-van_ak.UPF
     MD5 check sum: f98fea3e8887528921fefa5636a534ca
     Pseudo is Ultrasoft, Zval = 12.0
     Generated by new atomic code, or converted to UPF format
     Using radial grid of  851 points,  6 beta functions with:
                l(1) =   0
                l(2) =   0
                l(3) =   1
                l(4) =   1
                l(5) =   2
                l(6) =   2
     Q(r) pseudized with  8 coefficients,  rinner =    1.000   1.000   1.000
                                                       1.000   1.000

     atomic species   valence    mass     pseudopotential
        Nb            13.00    92.90638     Nb( 1.00)
        Ti            12.00    47.86700     Ti( 1.00)

     No symmetry found
          (note:  1 additional sym.ops. were found but ignored
           their fractional translations are incommensurate with FFT grid)

   Cartesian axes

     site n.     atom                  positions (alat units)
         1           Ti  tau(   1) = (   0.0000000   0.0000000  -4.9724614  )
         2           Nb  tau(   2) = (  -1.5225006   0.8790162  -2.4862307  )
         3           Nb  tau(   3) = (  -3.0450042   0.0000000  -4.9724614  )
         4           Nb  tau(   4) = (  -4.5675048   0.8790162  -2.4862307  )
         5           Nb  tau(   5) = (  -3.0450042   0.0000000  -9.9449228  )
         6           Nb  tau(   6) = (   1.5225036   0.8790162  -7.4586921  )
         7           Nb  tau(   7) = (   0.0000000   0.0000000  -9.9449228  )
         8           Nb  tau(   8) = (  -1.5225006   0.8790162  -7.4586921  )

     number of k points=   504  Marzari-Vanderbilt smearing, width (Ry)=  0.0200

     Number of k-points >= 100: set verbosity='high' to print them.

     Check: negative/imaginary core charge=   -0.000001    0.000000

     Initial potential from superposition of free atoms

     starting charge  101.98082, renormalised to  103.00000
     Starting wfcs are  101 randomized atomic wfcs

     Self-consistent Calculation

     iteration #  1     ecut=    40.00 Ry     beta= 0.60
     Davidson diagonalization with overlap
     ethr =  1.00E-02,  avg # of iterations =  2.0

     total energy              =    -918.79402603 Ry
     Harris-Foulkes estimate   =    -944.65754292 Ry
     estimated scf accuracy    <      32.34138718 Ry

[...]

     End of self-consistent calculation

     Number of k-points >= 100: set verbosity='high' to print the bands.

     the Fermi energy is    15.6981 ev

!    total energy              =    -941.96902723 Ry
     Harris-Foulkes estimate   =    -941.96902723 Ry
     estimated scf accuracy    <          2.0E-11 Ry

     The total energy is the sum of the following terms:

     one-electron contribution =    -191.78367612 Ry
     hartree contribution      =     139.90228783 Ry
     xc contribution           =    -142.75529440 Ry
     ewald contribution        =    -747.33067032 Ry
     smearing contrib. (-TS)   =      -0.00167423 Ry

     convergence has been achieved in  40 iterations

     Forces acting on atoms (cartesian axes, Ry/au):

     atom    1 type  2   force =     0.00000483    0.00110445    0.00000226
     atom    2 type  1   force =     0.00220694    0.00096750   -0.00011569
     atom    3 type  1   force =    -0.00000134    0.00471177   -0.00000020
     atom    4 type  1   force =    -0.00154984   -0.00064953   -0.00599051
     atom    5 type  1   force =    -0.00202888   -0.00322602    0.00052390
     atom    6 type  1   force =    -0.00220796    0.00096737    0.00011509
     atom    7 type  1   force =     0.00202758   -0.00322598   -0.00052426
     atom    8 type  1   force =     0.00154866   -0.00064957    0.00598941

     Total force =     0.011919     Total SCF correction =     0.000012

     Computing stress (Cartesian axis) and pressure

          total   stress  (Ry/bohr**3)                   (kbar)     P= -108.22
  -0.00088693  -0.00000000   0.00000454       -130.47     -0.00      0.67
  -0.00000000  -0.00088631  -0.00000000         -0.00   -130.38     -0.00
   0.00000454  -0.00000000  -0.00043382          0.67     -0.00    -63.82

     BFGS Geometry Optimization

     number of scf cycles    =   1
     number of bfgs steps    =   0

     enthalpy new            =    -941.9690272260 Ry

     new trust radius        =       0.1455905209 bohr
     new conv_thr            =            1.0E-10 Ry

     new unit-cell volume =   1019.36339 a.u.^3 (   151.05407 Ang^3 )
     density =      7.67545 g/cm^3

CELL_PARAMETERS (alat=  1.88972599)
   1.488178957   2.578619667  -4.918359120
   1.488179149  -2.578619702  -4.918359079
  -5.954972440   0.000000221  -0.000690828

ATOMIC_POSITIONS (angstrom)
Ti      -0.000561559   0.000571538  -4.918530625
Nb      -1.487881722   0.860039747  -2.459499041
Nb      -2.978050970   0.002438264  -4.918877323
Nb      -4.467312215   0.859203121  -2.462919782
Nb      -2.979664134  -0.001669125  -9.837134920
Nb       1.486755996   0.860039602  -7.377564899
Nb      -0.000078986  -0.001669211  -9.837337907
Nb      -1.488786033   0.859203027  -7.374835247

     NEW-OLD atomic charge density approx. for the potential

     Check: negative/imaginary core charge=   -0.000001    0.000000
     extrapolated charge   97.15476, renormalised to  103.00000

[...]

     iteration #  1     ecut=    40.00 Ry     beta= 0.60
     Davidson diagonalization with overlap
     c_bands:  1 eigenvalues not converged
     c_bands:  1 eigenvalues not converged
     c_bands:  1 eigenvalues not converged
     c_bands:  1 eigenvalues not converged
     c_bands:  1 eigenvalues not converged
     c_bands:  1 eigenvalues not converged
     c_bands:  1 eigenvalues not converged
     c_bands:  1 eigenvalues not converged
     c_bands:  1 eigenvalues not converged
     c_bands:  2 eigenvalues not converged
     c_bands:  2 eigenvalues not converged
     c_bands:  1 eigenvalues not converged
     c_bands:  2 eigenvalues not converged
     c_bands:  1 eigenvalues not converged
     c_bands:  1 eigenvalues not converged
     c_bands:  1 eigenvalues not converged
     c_bands:  1 eigenvalues not converged
     c_bands:  2 eigenvalues not converged
     c_bands:  1 eigenvalues not converged
     c_bands:  1 eigenvalues not converged
     c_bands:  1 eigenvalues not converged
     c_bands:  1 eigenvalues not converged
     c_bands:  2 eigenvalues not converged
     c_bands:  2 eigenvalues not converged
     c_bands:  1 eigenvalues not converged
     c_bands:  1 eigenvalues not converged
     c_bands:  1 eigenvalues not converged
     c_bands:  2 eigenvalues not converged
     c_bands:  1 eigenvalues not converged
     c_bands:  1 eigenvalues not converged
     c_bands:  1 eigenvalues not converged
     c_bands:  2 eigenvalues not converged
     c_bands:  2 eigenvalues not converged
     c_bands:  2 eigenvalues not converged
     c_bands:  1 eigenvalues not converged
     c_bands:  1 eigenvalues not converged
     c_bands:  1 eigenvalues not converged
     c_bands:  1 eigenvalues not converged
     c_bands:  1 eigenvalues not converged
     c_bands:  1 eigenvalues not converged
     c_bands:  2 eigenvalues not converged
     c_bands:  1 eigenvalues not converged
     c_bands:  2 eigenvalues not converged
     c_bands:  1 eigenvalues not converged
     c_bands:  1 eigenvalues not converged
     c_bands:  1 eigenvalues not converged
     c_bands:  1 eigenvalues not converged
     c_bands:  1 eigenvalues not converged
     c_bands:  1 eigenvalues not converged
     c_bands:  1 eigenvalues not converged
     c_bands:  1 eigenvalues not converged
     c_bands:  1 eigenvalues not converged
     c_bands:  1 eigenvalues not converged
     c_bands:  1 eigenvalues not converged
     c_bands:  1 eigenvalues not converged
     c_bands:  1 eigenvalues not converged
     c_bands:  2 eigenvalues not converged
     c_bands:  1 eigenvalues not converged
     c_bands:  1 eigenvalues not converged
     c_bands:  1 eigenvalues not converged
[...]
     c_bands:  1 eigenvalues not converged
     c_bands:  1 eigenvalues not converged
     c_bands:  1 eigenvalues not converged
     c_bands:  1 eigenvalues not converged
     c_bands:  1 eigenvalues not converged
     c_bands:  1 eigenvalues not converged
     c_bands:  2 eigenvalues not converged
     c_bands:  1 eigenvalues not converged
     c_bands:  1 eigenvalues not converged
     c_bands:  1 eigenvalues not converged
     c_bands:  1 eigenvalues not converged
     c_bands:  1 eigenvalues not converged
     c_bands:  1 eigenvalues not converged
     c_bands:  1 eigenvalues not converged
     c_bands:  1 eigenvalues not converged
     ethr =  1.00E-06,  avg # of iterations = 15.1

[...]

     enthalpy old            =    -941.9690272260 Ry
     enthalpy new            =    -942.0025465641 Ry

     CASE: enthalpy_new < enthalpy_old

[...]

     NEW-OLD atomic charge density approx. for the potential
     extrapolated charge  104.08352, renormalised to  103.00000

[...]

     WARNING: bfgs curvature condition failed, Theta= 0.944
     new trust radius        =       0.0460279338 bohr
     new conv_thr            =            1.0E-10 Ry

[...]

     WARNING: bfgs curvature condition failed, Theta= 0.983
     new trust radius        =       0.0272417865 bohr
     new conv_thr            =            1.0E-10 Ry

[...]

     NEW-OLD atomic charge density approx. for the potential

     Check: negative/imaginary core charge=   -0.000001    0.000000
     extrapolated charge  102.99148, renormalised to  103.00000

[...]

     iteration #  2     ecut=    40.00 Ry     beta= 0.60
     Davidson diagonalization with overlap
     c_bands:  1 eigenvalues not converged
     c_bands:  1 eigenvalues not converged
     c_bands:  1 eigenvalues not converged
     c_bands:  1 eigenvalues not converged
     c_bands:  1 eigenvalues not converged
     c_bands:  1 eigenvalues not converged
     c_bands:  1 eigenvalues not converged
     c_bands:  1 eigenvalues not converged
     c_bands:  1 eigenvalues not converged
     c_bands:  1 eigenvalues not converged
     c_bands:  1 eigenvalues not converged
     c_bands:  1 eigenvalues not converged
     c_bands:  1 eigenvalues not converged
     c_bands:  1 eigenvalues not converged
     ethr =  2.17E-06,  avg # of iterations =  7.1

[...]

     Self-consistent Calculation

[...]

     total energy              =    -942.09829219 Ry
     Harris-Foulkes estimate   =    -942.09829219 Ry
     estimated scf accuracy    <          7.2E-10 Ry

     iteration # 17     ecut=    40.00 Ry     beta= 0.60
     Davidson diagonalization with overlap
     ethr =  1.84E-13,  avg # of iterations =  3.2

     End of self-consistent calculation

     Number of k-points >= 100: set verbosity='high' to print the bands.

     the Fermi energy is    17.2344 ev

!    total energy              =    -942.09829219 Ry
     Harris-Foulkes estimate   =    -942.09829219 Ry
     estimated scf accuracy    <          5.2E-11 Ry

     The total energy is the sum of the following terms:

     one-electron contribution =    -160.44406335 Ry
     hartree contribution      =     131.56134387 Ry
     xc contribution           =    -143.57007446 Ry
     ewald contribution        =    -769.64882814 Ry
     smearing contrib. (-TS)   =       0.00332989 Ry

     convergence has been achieved in  17 iterations

     Forces acting on atoms (cartesian axes, Ry/au):

     atom    1 type  2   force =    -0.00000825   -0.00246444   -0.00003313
     atom    2 type  1   force =     0.00036382    0.00032838    0.00070593
     atom    3 type  1   force =    -0.00006355   -0.00138519    0.00001829
     atom    4 type  1   force =    -0.00209918    0.00157759    0.00125200
     atom    5 type  1   force =     0.00077489   -0.00002132   -0.00017178
     atom    6 type  1   force =    -0.00024161    0.00035890   -0.00076547
     atom    7 type  1   force =    -0.00089248    0.00002366    0.00019730
     atom    8 type  1   force =     0.00216636    0.00158243   -0.00120312

     Total force =     0.005299     Total SCF correction =     0.000014

     Computing stress (Cartesian axis) and pressure

          total   stress  (Ry/bohr**3)                   (kbar)     P=    0.87
   0.00002115   0.00000034  -0.00000021          3.11      0.05     -0.03
   0.00000034  -0.00000320  -0.00000020          0.05     -0.47     -0.03
  -0.00000021  -0.00000020  -0.00000012         -0.03     -0.03     -0.02

     number of scf cycles    =  50
     number of bfgs steps    =  49

     enthalpy old            =    -942.0981770615 Ry
     enthalpy new            =    -942.0982921940 Ry

     CASE: enthalpy_new < enthalpy_old

     new trust radius        =       0.0147737009 bohr
     new conv_thr            =            1.0E-10 Ry

     new unit-cell volume =    981.88024 a.u.^3 (   145.49964 Ang^3 )
     density =      7.96846 g/cm^3

CELL_PARAMETERS (alat=  1.88972599)
   0.702676762   2.688507252  -4.872417545
   0.703805155  -2.686624587  -4.870666908
  -5.447271475   0.000801931  -0.757111749

ATOMIC_POSITIONS (angstrom)
Ti      -0.660095008  -0.209566516  -5.060199306
Nb      -1.679528234   1.121677287  -2.716552999
Nb      -3.383680824  -0.225851235  -5.440078028
Nb      -4.391385400   1.109703701  -3.102238962
Nb      -4.048168329  -0.215812894 -10.503249691
Nb       0.364456611   1.122134641  -7.404750104
Nb      -1.312261702  -0.216719507 -10.118666623
Nb      -2.370395975   1.110874179  -7.777855758

     NEW-OLD atomic charge density approx. for the potential
     extrapolated charge  102.94921, renormalised to  103.00000

     General routines

     Parallel routines

   This run was terminated on:  22:18:16   9Feb2020

   JOB DONE.