     Program PWSCF v.6.3MaX starts on 25Jan2020 at 12:33:37

     R & G space division:  proc/nbgrp/npool/nimage =       4
     Waiting for input...
     Reading input from standard input

     Current dimensions of program PWSCF are:
     Max number of different atomic species (ntypx) = 10
     Max number of k-points (npk) =  40000
     Max angular momentum in pseudopotentials (lmaxx) =  3
     Message from routine iosys:
     minimal I/O required, wf_collect reset to FALSE

     Subspace diagonalization in iterative solution of the eigenvalue problem:
     a serial algorithm will be used

     bravais-lattice index     =            0
     lattice parameter (alat)  =       1.8897  a.u.
     unit-cell volume          =     808.3427 (a.u.)^3
     number of atoms/cell      =            6
     number of atomic types    =            2
     number of electrons       =        77.00
     number of Kohn-Sham states=           47
     kinetic-energy cutoff     =      40.0000  Ry
     charge density cutoff     =     400.0000  Ry
     convergence threshold     =      1.0E-10
     mixing beta               =       0.6000
     number of iterations used =            8  plain     mixing
     Exchange-correlation      = SLA PW PBE PBE ( 1  4  3  4 0 0)
     nstep                     =           50

     celldm(1)=   1.889726  celldm(2)=   0.000000  celldm(3)=   0.000000
     celldm(4)=   0.000000  celldm(5)=   0.000000  celldm(6)=   0.000000

     crystal axes: (cart. coord. in units of alat)
               a(1) = (   3.045004   0.000000   4.972461 )
               a(2) = (  -1.522502   2.637051   4.972461 )
               a(3) = (  -1.522502  -2.637051   4.972461 )

     reciprocal axes: (cart. coord. in units 2 pi/alat)
               b(1) = (  0.218938  0.000000  0.067036 )
               b(2) = ( -0.109469  0.189606  0.067036 )
               b(3) = ( -0.109469 -0.189606  0.067036 )

     PseudoPot. # 1 for Nb read from file:
     ./Nb.pbe-nsp-van.UPF
     MD5 check sum: 0a22fc7fb0ba19a08ca5db297a5d2854
     Pseudo is Ultrasoft + core correction, Zval = 13.0
     Generated by new atomic code, or converted to UPF format
     Using radial grid of  887 points,  6 beta functions with:
                l(1) =   0
                l(2) =   0
                l(3) =   1
                l(4) =   1
                l(5) =   2
                l(6) =   2
     Q(r) pseudized with  6 coefficients,  rinner =    1.000   1.000   1.000
                                                       1.000   1.000

     PseudoPot. # 2 for Ti read from file:
     ./Ti.pbe-sp-van_ak.UPF
     MD5 check sum: f98fea3e8887528921fefa5636a534ca
     Pseudo is Ultrasoft, Zval = 12.0
     Generated by new atomic code, or converted to UPF format
     Using radial grid of  851 points,  6 beta functions with:
                l(1) =   0
                l(2) =   0
                l(3) =   1
                l(4) =   1
                l(5) =   2
                l(6) =   2
     Q(r) pseudized with  8 coefficients,  rinner =    1.000   1.000   1.000
                                                       1.000   1.000

     atomic species   valence    mass     pseudopotential
        Nb            13.00    92.90638     Nb( 1.00)
        Ti            12.00    47.86700     Ti( 1.00)

      6 Sym. Ops. (no inversion) found ( 3 have fractional translation)

   Cartesian axes

     site n.     atom                  positions (alat units)
         1           Ti  tau(   1) = (   0.0000000   0.0000000   9.9449228  )
         2           Nb  tau(   2) = (   0.0000015  -1.7580350   7.4586921  )
         3           Nb  tau(   3) = (   0.0000000   0.0000000  14.9173841  )
         4           Nb  tau(   4) = (   1.5225036   0.8790162   7.4586921  )
         5           Nb  tau(   5) = (   0.0000000   0.0000000   4.9724614  )
         6           Nb  tau(   6) = (  -1.5225006   0.8790162   7.4586921  )

     number of k points=   189  Marzari-Vanderbilt smearing, width (Ry)=  0.0200

     Number of k-points >= 100: set verbosity='high' to print them.

     Check: negative/imaginary core charge=   -0.000001    0.000000

     Initial potential from superposition of free atoms

     starting charge   75.98629, renormalised to   77.00000
     Starting wfcs are   75 randomized atomic wfcs

     Self-consistent Calculation

     iteration #  1     ecut=    40.00 Ry     beta= 0.60
     Davidson diagonalization with overlap
     ethr =  1.00E-02,  avg # of iterations =  2.0

     total energy              =    -687.08459973 Ry
     Harris-Foulkes estimate   =    -708.30576495 Ry
     estimated scf accuracy    <      26.61117520 Ry

[...]

     End of self-consistent calculation

     Number of k-points >= 100: set verbosity='high' to print the bands.

     the Fermi energy is    15.4913 ev

!    total energy              =    -706.16285895 Ry
     Harris-Foulkes estimate   =    -706.16285895 Ry
     estimated scf accuracy    <          1.7E-11 Ry

     The total energy is the sum of the following terms:

     one-electron contribution =    -150.56520695 Ry
     hartree contribution      =     107.42394156 Ry
     xc contribution           =    -106.08354847 Ry
     ewald contribution        =    -556.93641196 Ry
     smearing contrib. (-TS)   =      -0.00163313 Ry

     convergence has been achieved in  46 iterations

     Forces acting on atoms (cartesian axes, Ry/au):

     atom    1 type  2   force =     0.00000000    0.00000000    0.00000000
     atom    2 type  1   force =     0.00237738    0.00137258    0.00000000
     atom    3 type  1   force =    -0.00000000    0.00000000    0.00087367
     atom    4 type  1   force =    -0.00237738    0.00137258    0.00000000
     atom    5 type  1   force =     0.00000000    0.00000000   -0.00087367
     atom    6 type  1   force =     0.00000000   -0.00274516   -0.00000000

     Total force =     0.004913     Total SCF correction =     0.000001

     Computing stress (Cartesian axis) and pressure

          total   stress  (Ry/bohr**3)                   (kbar)     P= -111.08
  -0.00089616   0.00000000   0.00000000       -131.83      0.00      0.00
   0.00000000  -0.00089616  -0.00000000          0.00   -131.83     -0.00
   0.00000000  -0.00000000  -0.00047298          0.00     -0.00    -69.58

     BFGS Geometry Optimization

     number of scf cycles    =   1
     number of bfgs steps    =   0

     enthalpy new            =    -706.1628589469 Ry

     new trust radius        =       0.1273959445 bohr
     new conv_thr            =            1.0E-10 Ry

     new unit-cell volume =    763.39325 a.u.^3 (   113.12321 Ang^3 )
     density =      7.52152 g/cm^3

CELL_PARAMETERS (alat=  1.88972599)
   2.976783373   0.000000000   4.913663690
  -1.488391686   2.577970208   4.913663690
  -1.488391686  -2.577970208   4.913663690

ATOMIC_POSITIONS (angstrom)
Ti       0.000000000   0.000000000   9.827327380
Nb       0.001231359  -1.717937599   7.370495535
Nb       0.000000000   0.000000000  14.741447932
Nb       1.487163305   0.860032609   7.370495535
Nb       0.000000000   0.000000000   4.913206829
Nb      -1.488390198   0.857902412   7.370495535

     NEW-OLD atomic charge density approx. for the potential

     Check: negative/imaginary core charge=   -0.000001    0.000000
     extrapolated charge   72.52584, renormalised to   77.00000

[...]

     iteration #  1     ecut=    40.00 Ry     beta= 0.60
     Davidson diagonalization with overlap
     c_bands:  1 eigenvalues not converged
     c_bands:  1 eigenvalues not converged
     c_bands:  1 eigenvalues not converged
     c_bands:  1 eigenvalues not converged
     c_bands:  1 eigenvalues not converged
     c_bands:  1 eigenvalues not converged
     c_bands:  1 eigenvalues not converged
     c_bands:  1 eigenvalues not converged
     c_bands:  1 eigenvalues not converged
     c_bands:  1 eigenvalues not converged
     c_bands:  1 eigenvalues not converged
     c_bands:  1 eigenvalues not converged
     c_bands:  1 eigenvalues not converged
     c_bands:  1 eigenvalues not converged
     c_bands:  1 eigenvalues not converged
     c_bands:  1 eigenvalues not converged
     c_bands:  2 eigenvalues not converged
     c_bands:  1 eigenvalues not converged
     c_bands:  1 eigenvalues not converged
     c_bands:  1 eigenvalues not converged
     c_bands:  1 eigenvalues not converged
     c_bands:  1 eigenvalues not converged
     c_bands:  1 eigenvalues not converged
     c_bands:  1 eigenvalues not converged
     c_bands:  1 eigenvalues not converged
     c_bands:  1 eigenvalues not converged
     c_bands:  1 eigenvalues not converged
     c_bands:  1 eigenvalues not converged
     c_bands:  1 eigenvalues not converged
     c_bands:  1 eigenvalues not converged
     c_bands:  1 eigenvalues not converged
     c_bands:  1 eigenvalues not converged
     c_bands:  1 eigenvalues not converged
     c_bands:  1 eigenvalues not converged
     c_bands:  1 eigenvalues not converged
     c_bands:  1 eigenvalues not converged
     c_bands:  1 eigenvalues not converged
     ethr =  1.00E-06,  avg # of iterations = 14.5

[...]

     enthalpy old            =    -706.1628589469 Ry
     enthalpy new            =    -706.1889413004 Ry

     CASE: enthalpy_new < enthalpy_old

[...]

     iteration #  2     ecut=    40.00 Ry     beta= 0.60
     Davidson diagonalization with overlap
     c_bands:  1 eigenvalues not converged
     c_bands:  1 eigenvalues not converged
     c_bands:  1 eigenvalues not converged
     ethr =  1.34E-05,  avg # of iterations =  7.0

[...]

     Threshold (ethr) on eigenvalues was too large:
     Diagonalizing with lowered threshold

     Davidson diagonalization with overlap
     ethr =  1.03E-08,  avg # of iterations =  3.0

[...]

     small trust_radius: resetting bfgs history

[...]

     number of scf cycles    =  17
     number of bfgs steps    =  16

     enthalpy old            =    -706.2057335765 Ry
     enthalpy new            =    -706.2057335772 Ry

     CASE: enthalpy_new < enthalpy_old

     Message from routine bfgs:
     history already reset at previous step: stopping
     small trust_radius: resetting bfgs history

     new trust radius        =       0.0000062944 bohr
     new conv_thr            =            1.0E-12 Ry

     new unit-cell volume =    742.53491 a.u.^3 (   110.03232 Ang^3 )
     density =      7.73280 g/cm^3

[...]

ATOMIC_POSITIONS (angstrom)
Ti      -0.000000000   0.000000000  10.361360018
Nb       0.005169618  -1.647762941   7.771020013
Nb      -0.000000000   0.000000000  15.533111243
Nb       1.424421076   0.828356014   7.771020013
Nb      -0.000000000   0.000000000   5.189608792
Nb      -1.429586404   0.819404450   7.771020013

     NEW-OLD atomic charge density approx. for the potential

     Check: negative/imaginary core charge=   -0.000001    0.000000
     extrapolated charge   77.00017, renormalised to   77.00000

[...]

     Threshold (ethr) on eigenvalues was too large:
     Diagonalizing with lowered threshold

     Davidson diagonalization with overlap
     ethr =  1.28E-12,  avg # of iterations =  3.1

[...]

     bfgs converged in  18 scf cycles and  17 bfgs steps
     (criteria: energy <  1.0E-10 Ry, force <  1.0E-05Ry/Bohr, cell <  1.0E-03kbar)

     End of BFGS Geometry Optimization

     Final enthalpy =    -706.2057335773 Ry
Begin final coordinates
     new unit-cell volume =    742.53491 a.u.^3 (   110.03232 Ang^3 )
     density =      7.73280 g/cm^3

CELL_PARAMETERS (alat=  1.88972599)
   2.859175668   0.000000000   5.180680009
  -1.429587834   2.476118955   5.180680009
  -1.429587834  -2.476118955   5.180680009

ATOMIC_POSITIONS (angstrom)
Ti      -0.000000000   0.000000000  10.361360018
Nb       0.005169618  -1.647762941   7.771020013
Nb      -0.000000000   0.000000000  15.533111243
Nb       1.424421076   0.828356014   7.771020013
Nb      -0.000000000   0.000000000   5.189608792
Nb      -1.429586404   0.819404450   7.771020013
End final coordinates

     A final scf calculation at the relaxed structure.
     The G-vectors are recalculated for the final unit cell
     Results may differ from those at the preceding step.

     bravais-lattice index     =            0
     lattice parameter (alat)  =       1.8897  a.u.
     unit-cell volume          =     742.5349 (a.u.)^3
     number of atoms/cell      =            6
     number of atomic types    =            2
     number of electrons       =        77.00
     number of Kohn-Sham states=           47
     kinetic-energy cutoff     =      40.0000  Ry
     charge density cutoff     =     400.0000  Ry
     convergence threshold     =      1.0E-12
     mixing beta               =       0.6000
     number of iterations used =            8  plain     mixing
     Exchange-correlation      = SLA PW PBE PBE ( 1  4  3  4 0 0)

     celldm(1)=   1.889726  celldm(2)=   0.000000  celldm(3)=   0.000000
     celldm(4)=   0.000000  celldm(5)=   0.000000  celldm(6)=   0.000000

     crystal axes: (cart. coord. in units of alat)
               a(1) = (   2.859176   0.000000   5.180680 )
               a(2) = (  -1.429588   2.476119   5.180680 )
               a(3) = (  -1.429588  -2.476119   5.180680 )

     reciprocal axes: (cart. coord. in units 2 pi/alat)
               b(1) = (  0.233167  0.000000  0.064342 )
               b(2) = ( -0.116584  0.201929  0.064342 )
               b(3) = ( -0.116584 -0.201929  0.064342 )

     PseudoPot. # 1 for Nb read from file:
     ./Nb.pbe-nsp-van.UPF
     MD5 check sum: 0a22fc7fb0ba19a08ca5db297a5d2854
     Pseudo is Ultrasoft + core correction, Zval = 13.0
     Generated by new atomic code, or converted to UPF format
     Using radial grid of  887 points,  6 beta functions with:
                l(1) =   0
                l(2) =   0
                l(3) =   1
                l(4) =   1
                l(5) =   2
                l(6) =   2
     Q(r) pseudized with  6 coefficients,  rinner =    1.000   1.000   1.000
                                                       1.000   1.000

     PseudoPot. # 2 for Ti read from file:
     ./Ti.pbe-sp-van_ak.UPF
     MD5 check sum: f98fea3e8887528921fefa5636a534ca
     Pseudo is Ultrasoft, Zval = 12.0
     Generated by new atomic code, or converted to UPF format
     Using radial grid of  851 points,  6 beta functions with:
                l(1) =   0
                l(2) =   0
                l(3) =   1
                l(4) =   1
                l(5) =   2
                l(6) =   2
     Q(r) pseudized with  8 coefficients,  rinner =    1.000   1.000   1.000
                                                       1.000   1.000

     atomic species   valence    mass     pseudopotential
        Nb            13.00    92.90638     Nb( 1.00)
        Ti            12.00    47.86700     Ti( 1.00)

      6 Sym. Ops. (no inversion) found ( 3 have fractional translation)

   Cartesian axes

     site n.     atom                  positions (alat units)
         1           Ti  tau(   1) = (  -0.0000000   0.0000000  10.3613608  )
         2           Nb  tau(   2) = (   0.0051696  -1.6477631   7.7710206  )
         3           Nb  tau(   3) = (  -0.0000000   0.0000000  15.5331124  )
         4           Nb  tau(   4) = (   1.4244212   0.8283561   7.7710206  )
         5           Nb  tau(   5) = (  -0.0000000   0.0000000   5.1896092  )
         6           Nb  tau(   6) = (  -1.4295865   0.8194045   7.7710206  )

     number of k points=   189  Marzari-Vanderbilt smearing, width (Ry)=  0.0200

     Number of k-points >= 100: set verbosity='high' to print them.

     Check: negative/imaginary core charge=   -0.000001    0.000000

     Initial potential from superposition of free atoms

     starting charge   75.98629, renormalised to   77.00000
     Starting wfcs are   75 randomized atomic wfcs

     Self-consistent Calculation

[...]

     total energy              =    -706.20430275 Ry
     Harris-Foulkes estimate   =    -706.20430275 Ry
     estimated scf accuracy    <          2.1E-11 Ry

     iteration # 39     ecut=    40.00 Ry     beta= 0.60
     Davidson diagonalization with overlap
     ethr =  1.00E-13,  avg # of iterations =  1.9

     End of self-consistent calculation

     Number of k-points >= 100: set verbosity='high' to print the bands.

     the Fermi energy is    17.0426 ev

!    total energy              =    -706.20430275 Ry
     Harris-Foulkes estimate   =    -706.20430275 Ry
     estimated scf accuracy    <          2.8E-13 Ry

     The total energy is the sum of the following terms:

     one-electron contribution =    -129.55940051 Ry
     hartree contribution      =     101.97171156 Ry
     xc contribution           =    -106.64497529 Ry
     ewald contribution        =    -571.97032974 Ry
     smearing contrib. (-TS)   =      -0.00130876 Ry

     convergence has been achieved in  39 iterations

     Forces acting on atoms (cartesian axes, Ry/au):

     atom    1 type  2   force =     0.00000000    0.00000000    0.00000000
     atom    2 type  1   force =     0.00000069    0.00000040    0.00000000
     atom    3 type  1   force =    -0.00000000    0.00000000    0.00000428
     atom    4 type  1   force =    -0.00000069    0.00000040   -0.00000000
     atom    5 type  1   force =     0.00000000    0.00000000   -0.00000428
     atom    6 type  1   force =     0.00000000   -0.00000080    0.00000000

     Total force =     0.000006     Total SCF correction =     0.000001

     Computing stress (Cartesian axis) and pressure

          total   stress  (Ry/bohr**3)                   (kbar)     P=   -0.01
  -0.00000158   0.00000000  -0.00000000         -0.23      0.00     -0.00
   0.00000000  -0.00000158   0.00000000          0.00     -0.23      0.00
  -0.00000000   0.00000000   0.00000296         -0.00      0.00      0.43

     General routines

     Parallel routines

       1h

   This run was terminated on:  16:35: 8  25Jan2020

   JOB DONE.