     Program PWSCF v.6.0 (svn rev. 13079) starts on  8May2018 at 20:22:27

     Current dimensions of program PWSCF are:
     Max number of different atomic species (ntypx) = 10
     Max number of k-points (npk) =  40000
     Max angular momentum in pseudopotentials (lmaxx) =  3

     Subspace diagonalization in iterative solution of the eigenvalue problem:
     a serial algorithm will be used

     bravais-lattice index     =            0
     lattice parameter (alat)  =       1.8897  a.u.
     unit-cell volume          =     586.6735 (a.u.)^3
     number of atoms/cell      =            4
     number of atomic types    =            2
     number of electrons       =        51.00
     number of Kohn-Sham states=           31
     kinetic-energy cutoff     =      50.0000  Ry
     charge density cutoff     =     500.0000  Ry
     convergence threshold     =      1.0E-10
     mixing beta               =       0.6000
     number of iterations used =            8  plain     mixing
     Exchange-correlation      = SLA  PW   PBE  PBE ( 1  4  3  4 0 0)
     nstep                     =           50

     celldm(1)=   1.889726  celldm(2)=   0.000000  celldm(3)=   0.000000
     celldm(4)=   0.000000  celldm(5)=   0.000000  celldm(6)=   0.000000

     crystal axes: (cart. coord. in units of alat)
               a(1) = (  -5.274095   1.758031   1.758031 )
               a(2) = (   1.758031   1.758031  -5.274095 )
               a(3) = (   1.758031  -5.274095   1.758031 )

     reciprocal axes: (cart. coord. in units 2 pi/alat)
               b(1) = ( -0.284409 -0.142205 -0.142205 )
               b(2) = ( -0.142205 -0.142205 -0.284409 )
               b(3) = ( -0.142205 -0.284409 -0.142205 )

     PseudoPot. # 1 for Nb read from file:
     ./Nb.pbe-nsp-van.UPF
     MD5 check sum: 0a22fc7fb0ba19a08ca5db297a5d2854
     Pseudo is Ultrasoft + core correction, Zval = 13.0
     Generated by new atomic code, or converted to UPF format
     Using radial grid of  887 points,  6 beta functions with:
                l(1) =   0
                l(2) =   0
                l(3) =   1
                l(4) =   1
                l(5) =   2
                l(6) =   2
     Q(r) pseudized with  6 coefficients,  rinner =    1.000   1.000   1.000
                                                       1.000   1.000

     PseudoPot. # 2 for Ti read from file:
     ./Ti.pbe-sp-van_ak.UPF
     MD5 check sum: f98fea3e8887528921fefa5636a534ca
     Pseudo is Ultrasoft, Zval = 12.0
     Generated by new atomic code, or converted to UPF format
     Using radial grid of  851 points,  6 beta functions with:
                l(1) =   0
                l(2) =   0
                l(3) =   1
                l(4) =   1
                l(5) =   2
                l(6) =   2
     Q(r) pseudized with  8 coefficients,  rinner =    1.000   1.000   1.000
                                                       1.000   1.000

     atomic species   valence    mass     pseudopotential
        Nb            13.00    92.90638     Nb( 1.00)
        Ti            12.00    47.86700     Ti( 1.00)

     12 Sym. Ops., with inversion, found ( 8 have fractional translation)

   Cartesian axes

     site n.     atom                  positions (alat units)
         1           Ti  tau(   1) = (   0.0000000   0.0000000  -3.5160633  )
         2           Nb  tau(   2) = (   0.0000000  -3.5160633   0.0000000  )
         3           Nb  tau(   3) = (  -3.5160633   0.0000000   0.0000000  )
         4           Nb  tau(   4) = (  -1.7580316  -1.7580316  -1.7580316  )

     number of k points=   231  Marzari-Vanderbilt smearing, width (Ry)=  0.0200

     Number of k-points >= 100: set verbosity='high' to print them.

     Initial potential from superposition of free atoms

     starting charge   49.99176, renormalised to   51.00000
     Starting wfc are   49 randomized atomic wfcs

     Self-consistent Calculation

     iteration #  1     ecut=    50.00 Ry     beta=0.60
     Davidson diagonalization with overlap
     ethr =  1.00E-02,  avg # of iterations =  2.3

     total energy              =    -448.58537453 Ry
     Harris-Foulkes estimate   =    -472.59586474 Ry
     estimated scf accuracy    <      29.96858802 Ry

[...]

     End of self-consistent calculation

     Number of k-points >= 100: set verbosity='high' to print the bands.

     the Fermi energy is    13.2831 ev

!    total energy              =    -470.35902727 Ry
     Harris-Foulkes estimate   =    -470.35902727 Ry
     estimated scf accuracy    <          1.3E-11 Ry

     The total energy is the sum of the following terms:

     one-electron contribution =    -124.24085030 Ry
     hartree contribution      =      79.32105597 Ry
     xc contribution           =     -69.12085323 Ry
     ewald contribution        =    -356.31861417 Ry
     smearing contrib. (-TS)   =       0.00023446 Ry

     convergence has been achieved in  32 iterations

     Forces acting on atoms (Ry/au):

     atom    1 type  2   force =    -0.00000000   -0.00000000   -0.00000000
     atom    2 type  1   force =     0.00000000    0.00000000    0.00000000
     atom    3 type  1   force =     0.00000000    0.00000000    0.00000000
     atom    4 type  1   force =     0.00000000    0.00000000    0.00000000

     Total force =     0.000000     Total SCF correction =     0.000000

     entering subroutine stress ...

          total   stress  (Ry/bohr**3)                   (kbar)     P= -212.29
  -0.00144312  -0.00001329  -0.00001329       -212.29     -1.95     -1.95
  -0.00001329  -0.00144312  -0.00001329         -1.95   -212.29     -1.95
  -0.00001329  -0.00001329  -0.00144312         -1.95     -1.95   -212.29

     BFGS Geometry Optimization

     number of scf cycles    =   1
     number of bfgs steps    =   0

     enthalpy new            =    -470.3590272695 Ry

     new trust radius        =       0.1747860633 bohr
     new conv_thr            =            1.0E-10 Ry

     new unit-cell volume =    525.43869 a.u.^3 (    77.86198 Ang^3 )

CELL_PARAMETERS (alat=  1.88972599)
  -5.084984198   1.695773516   1.695773516
   1.695773516   1.695773516  -5.084984198
   1.695773516  -5.084984198   1.695773516

ATOMIC_POSITIONS (angstrom)
Ti       0.001168175   0.001168175  -3.389210682
Nb       0.001168175  -3.389210682   0.001168175
Nb      -3.389210682   0.001168175   0.001168175
Nb      -1.693437166  -1.693437166  -1.693437166

     NEW-OLD atomic charge density approx. for the potential
     extrapolated charge   45.17395, renormalised to   51.00000

[...]

     iteration #  1     ecut=    50.00 Ry     beta=0.60
     Davidson diagonalization with overlap
     c_bands:  1 eigenvalues not converged
     c_bands:  1 eigenvalues not converged
     c_bands:  1 eigenvalues not converged
     c_bands:  1 eigenvalues not converged
     c_bands:  1 eigenvalues not converged
     c_bands:  1 eigenvalues not converged
     c_bands:  1 eigenvalues not converged
     c_bands:  1 eigenvalues not converged
     ethr =  1.00E-06,  avg # of iterations = 12.7

[...]

     enthalpy old            =    -470.3590272695 Ry
     enthalpy new            =    -470.4294173516 Ry

     CASE: enthalpy_new < enthalpy_old

[...]

     iteration #  2     ecut=    50.00 Ry     beta=0.60
     Davidson diagonalization with overlap
     c_bands:  1 eigenvalues not converged
     c_bands:  1 eigenvalues not converged
     c_bands:  2 eigenvalues not converged
     c_bands:  1 eigenvalues not converged
     c_bands:  2 eigenvalues not converged
     c_bands:  2 eigenvalues not converged
     c_bands:  1 eigenvalues not converged
     c_bands:  1 eigenvalues not converged
     c_bands:  1 eigenvalues not converged
     c_bands:  1 eigenvalues not converged
     c_bands:  2 eigenvalues not converged
     c_bands:  1 eigenvalues not converged
     c_bands:  1 eigenvalues not converged
     c_bands:  1 eigenvalues not converged
     c_bands:  1 eigenvalues not converged
     c_bands:  1 eigenvalues not converged
     c_bands:  1 eigenvalues not converged
     c_bands:  1 eigenvalues not converged
     c_bands:  1 eigenvalues not converged
     ethr =  5.95E-06,  avg # of iterations =  9.0

[...]

     Threshold (ethr) on eigenvalues was too large:
     Diagonalizing with lowered threshold

     Davidson diagonalization with overlap
     ethr =  6.24E-08,  avg # of iterations =  1.5

[...]

     small trust_radius: resetting bfgs history

[...]

     number of scf cycles    =  11
     number of bfgs steps    =  10

     enthalpy old            =    -470.4482604591 Ry
     enthalpy new            =    -470.4482604683 Ry

     CASE: enthalpy_new < enthalpy_old

     Message from routine bfgs:
     history already reset at previous step: stopping
     small trust_radius: resetting bfgs history

     new trust radius        =       0.0000148477 bohr
     new conv_thr            =            1.0E-12 Ry

     new unit-cell volume =    480.99251 a.u.^3 (    71.27574 Ang^3 )

[...]

ATOMIC_POSITIONS (angstrom)
Ti       0.010159666   0.010159666  -3.290849980
Nb       0.010159666  -3.290849980   0.010159666
Nb      -3.290849980   0.010159666   0.010159666
Nb      -1.635265324  -1.635265324  -1.635265324

     NEW-OLD atomic charge density approx. for the potential
     extrapolated charge   51.00049, renormalised to   51.00000

[...]

     Threshold (ethr) on eigenvalues was too large:
     Diagonalizing with lowered threshold

     Davidson diagonalization with overlap
     ethr =  3.75E-11,  avg # of iterations =  1.0

[...]

     bfgs converged in  12 scf cycles and  11 bfgs steps
     (criteria: energy <  1.0E-10, force <  1.0E-05, cell <  1.0E-03)

     End of BFGS Geometry Optimization

     Final enthalpy =    -470.4482604686 Ry
Begin final coordinates
     new unit-cell volume =    480.99251 a.u.^3 (    71.27574 Ang^3 )

CELL_PARAMETERS (alat=  1.88972599)
  -4.946434635   1.655584656   1.655584656
   1.655584656   1.655584656  -4.946434635
   1.655584656  -4.946434635   1.655584656

ATOMIC_POSITIONS (angstrom)
Ti       0.010159666   0.010159666  -3.290849980
Nb       0.010159666  -3.290849980   0.010159666
Nb      -3.290849980   0.010159666   0.010159666
Nb      -1.635265324  -1.635265324  -1.635265324
End final coordinates

     A final scf calculation at the relaxed structure.
     The G-vectors are recalculated for the final unit cell
     Results may differ from those at the preceding step.

   Info: using nr1, nr2, nr3 values from input

   Info: using nr1, nr2, nr3 values from input

     bravais-lattice index     =            0
     lattice parameter (alat)  =       1.8897  a.u.
     unit-cell volume          =     480.9925 (a.u.)^3
     number of atoms/cell      =            4
     number of atomic types    =            2
     number of electrons       =        51.00
     number of Kohn-Sham states=           31
     kinetic-energy cutoff     =      50.0000  Ry
     charge density cutoff     =     500.0000  Ry
     convergence threshold     =      1.0E-12
     mixing beta               =       0.6000
     number of iterations used =            8  plain     mixing
     Exchange-correlation      = SLA  PW   PBE  PBE ( 1  4  3  4 0 0)

     celldm(1)=   1.889726  celldm(2)=   0.000000  celldm(3)=   0.000000
     celldm(4)=   0.000000  celldm(5)=   0.000000  celldm(6)=   0.000000

     crystal axes: (cart. coord. in units of alat)
               a(1) = (  -4.946435   1.655585   1.655585 )
               a(2) = (   1.655585   1.655585  -4.946435 )
               a(3) = (   1.655585  -4.946435   1.655585 )

     reciprocal axes: (cart. coord. in units 2 pi/alat)
               b(1) = ( -0.304820 -0.153351 -0.153351 )
               b(2) = ( -0.153351 -0.153351 -0.304820 )
               b(3) = ( -0.153351 -0.304820 -0.153351 )

     PseudoPot. # 1 for Nb read from file:
     ./Nb.pbe-nsp-van.UPF
     MD5 check sum: 0a22fc7fb0ba19a08ca5db297a5d2854
     Pseudo is Ultrasoft + core correction, Zval = 13.0
     Generated by new atomic code, or converted to UPF format
     Using radial grid of  887 points,  6 beta functions with:
                l(1) =   0
                l(2) =   0
                l(3) =   1
                l(4) =   1
                l(5) =   2
                l(6) =   2
     Q(r) pseudized with  6 coefficients,  rinner =    1.000   1.000   1.000
                                                       1.000   1.000

     PseudoPot. # 2 for Ti read from file:
     ./Ti.pbe-sp-van_ak.UPF
     MD5 check sum: f98fea3e8887528921fefa5636a534ca
     Pseudo is Ultrasoft, Zval = 12.0
     Generated by new atomic code, or converted to UPF format
     Using radial grid of  851 points,  6 beta functions with:
                l(1) =   0
                l(2) =   0
                l(3) =   1
                l(4) =   1
                l(5) =   2
                l(6) =   2
     Q(r) pseudized with  8 coefficients,  rinner =    1.000   1.000   1.000
                                                       1.000   1.000

     atomic species   valence    mass     pseudopotential
        Nb            13.00    92.90638     Nb( 1.00)
        Ti            12.00    47.86700     Ti( 1.00)

     12 Sym. Ops., with inversion, found ( 8 have fractional translation)

   Cartesian axes

     site n.     atom                  positions (alat units)
         1           Ti  tau(   1) = (   0.0101597   0.0101597  -3.2908502  )
         2           Nb  tau(   2) = (   0.0101597  -3.2908502   0.0101597  )
         3           Nb  tau(   3) = (  -3.2908502   0.0101597   0.0101597  )
         4           Nb  tau(   4) = (  -1.6352654  -1.6352654  -1.6352654  )

     number of k points=   231  Marzari-Vanderbilt smearing, width (Ry)=  0.0200

     Number of k-points >= 100: set verbosity='high' to print them.

     Initial potential from superposition of free atoms

     starting charge   49.99176, renormalised to   51.00000
     Starting wfc are   49 randomized atomic wfcs

     Self-consistent Calculation

[...]

     total energy              =    -470.44776104 Ry
     Harris-Foulkes estimate   =    -470.44776104 Ry
     estimated scf accuracy    <          1.7E-12 Ry

     iteration # 35     ecut=    50.00 Ry     beta=0.60
     Davidson diagonalization with overlap
     ethr =  1.00E-13,  avg # of iterations =  1.0

     End of self-consistent calculation

     Number of k-points >= 100: set verbosity='high' to print the bands.

     the Fermi energy is    16.8424 ev

!    total energy              =    -470.44776104 Ry
     Harris-Foulkes estimate   =    -470.44776104 Ry
     estimated scf accuracy    <          2.6E-14 Ry

     The total energy is the sum of the following terms:

     one-electron contribution =     -89.05240472 Ry
     hartree contribution      =      69.17014362 Ry
     xc contribution           =     -69.86384867 Ry
     ewald contribution        =    -380.70136285 Ry
     smearing contrib. (-TS)   =      -0.00028843 Ry

     convergence has been achieved in  35 iterations

     Forces acting on atoms (Ry/au):

     atom    1 type  2   force =    -0.00000000   -0.00000000   -0.00000000
     atom    2 type  1   force =     0.00000000    0.00000000    0.00000000
     atom    3 type  1   force =    -0.00000000   -0.00000000   -0.00000000
     atom    4 type  1   force =    -0.00000000   -0.00000000   -0.00000000

     Total force =     0.000000     Total SCF correction =     0.000000

     entering subroutine stress ...

          total   stress  (Ry/bohr**3)                   (kbar)     P=   -1.35
  -0.00000916  -0.00000005  -0.00000005         -1.35     -0.01     -0.01
  -0.00000005  -0.00000916  -0.00000005         -0.01     -1.35     -0.01
  -0.00000005  -0.00000005  -0.00000916         -0.01     -0.01     -1.35

     General routines

     Parallel routines

   This run was terminated on:   0:53:58   9May2018

   JOB DONE.