     Program PWSCF v.6.3MaX starts on 28Jan2020 at 13:49:49

     R & G space division:  proc/nbgrp/npool/nimage =       4
     Waiting for input...
     Reading input from standard input

     Current dimensions of program PWSCF are:
     Max number of different atomic species (ntypx) = 10
     Max number of k-points (npk) =  40000
     Max angular momentum in pseudopotentials (lmaxx) =  3
     Message from routine iosys:
     minimal I/O required, wf_collect reset to FALSE

     Subspace diagonalization in iterative solution of the eigenvalue problem:
     a serial algorithm will be used

     bravais-lattice index     =            0
     lattice parameter (alat)  =       1.8897  a.u.
     unit-cell volume          =     586.6735 (a.u.)^3
     number of atoms/cell      =            4
     number of atomic types    =            2
     number of electrons       =        51.00
     number of Kohn-Sham states=           31
     kinetic-energy cutoff     =      50.0000  Ry
     charge density cutoff     =     500.0000  Ry
     convergence threshold     =      1.0E-10
     mixing beta               =       0.6000
     number of iterations used =            8  plain     mixing
     Exchange-correlation      = SLA PW PBE PBE ( 1  4  3  4 0 0)
     nstep                     =           50

     celldm(1)=   1.889726  celldm(2)=   0.000000  celldm(3)=   0.000000
     celldm(4)=   0.000000  celldm(5)=   0.000000  celldm(6)=   0.000000

     crystal axes: (cart. coord. in units of alat)
               a(1) = (  -3.516063   0.000000   0.000000 )
               a(2) = (   0.000000   0.000000   3.516063 )
               a(3) = (   0.000000   7.032126   0.000000 )

     reciprocal axes: (cart. coord. in units 2 pi/alat)
               b(1) = ( -0.284409  0.000000  0.000000 )
               b(2) = (  0.000000  0.000000  0.284409 )
               b(3) = (  0.000000  0.142205  0.000000 )

     PseudoPot. # 1 for Nb read from file:
     ./Nb.pbe-nsp-van.UPF
     MD5 check sum: 0a22fc7fb0ba19a08ca5db297a5d2854
     Pseudo is Ultrasoft + core correction, Zval = 13.0
     Generated by new atomic code, or converted to UPF format
     Using radial grid of  887 points,  6 beta functions with:
                l(1) =   0
                l(2) =   0
                l(3) =   1
                l(4) =   1
                l(5) =   2
                l(6) =   2
     Q(r) pseudized with  6 coefficients,  rinner =    1.000   1.000   1.000
                                                       1.000   1.000

     PseudoPot. # 2 for Ti read from file:
     ./Ti.pbe-sp-van_ak.UPF
     MD5 check sum: f98fea3e8887528921fefa5636a534ca
     Pseudo is Ultrasoft, Zval = 12.0
     Generated by new atomic code, or converted to UPF format
     Using radial grid of  851 points,  6 beta functions with:
                l(1) =   0
                l(2) =   0
                l(3) =   1
                l(4) =   1
                l(5) =   2
                l(6) =   2
     Q(r) pseudized with  8 coefficients,  rinner =    1.000   1.000   1.000
                                                       1.000   1.000

     atomic species   valence    mass     pseudopotential
        Nb            13.00    92.90638     Nb( 1.00)
        Ti            12.00    47.86700     Ti( 1.00)

     16 Sym. Ops., with inversion, found ( 8 have fractional translation)

   Cartesian axes

     site n.     atom                  positions (alat units)
         1           Ti  tau(   1) = (  -1.7580316   1.7580316   1.7580316  )
         2           Nb  tau(   2) = (  -3.5160633   3.5160633   3.5160633  )
         3           Nb  tau(   3) = (  -1.7580316   5.2740949   1.7580316  )
         4           Nb  tau(   4) = (  -3.5160633   7.0321265   3.5160633  )

     number of k points=   225  Marzari-Vanderbilt smearing, width (Ry)=  0.0200

     Number of k-points >= 100: set verbosity='high' to print them.

     Initial potential from superposition of free atoms

     starting charge   49.99176, renormalised to   51.00000
     Starting wfcs are   49 randomized atomic wfcs

     Self-consistent Calculation

     iteration #  1     ecut=    50.00 Ry     beta= 0.60
     Davidson diagonalization with overlap
     ethr =  1.00E-02,  avg # of iterations =  2.7

     total energy              =    -437.40271823 Ry
     Harris-Foulkes estimate   =    -473.53234057 Ry
     estimated scf accuracy    <      44.68237554 Ry

[...]

     End of self-consistent calculation

     Number of k-points >= 100: set verbosity='high' to print the bands.

     the Fermi energy is    13.2923 ev

!    total energy              =    -470.35342509 Ry
     Harris-Foulkes estimate   =    -470.35342509 Ry
     estimated scf accuracy    <          2.6E-11 Ry

     The total energy is the sum of the following terms:

     one-electron contribution =    -124.30886820 Ry
     hartree contribution      =      79.36177428 Ry
     xc contribution           =     -69.11967897 Ry
     ewald contribution        =    -356.28636831 Ry
     smearing contrib. (-TS)   =      -0.00028389 Ry

     convergence has been achieved in  34 iterations

     Forces acting on atoms (cartesian axes, Ry/au):

     atom    1 type  2   force =     0.00000000   -0.00000000    0.00000000
     atom    2 type  1   force =     0.00000000    0.02093636    0.00000000
     atom    3 type  1   force =     0.00000000    0.00000000    0.00000000
     atom    4 type  1   force =     0.00000000   -0.02093636    0.00000000

     Total force =     0.029608     Total SCF correction =     0.000008

     Computing stress (Cartesian axis) and pressure

          total   stress  (Ry/bohr**3)                   (kbar)     P= -212.02
  -0.00143004   0.00000000   0.00000000       -210.37      0.00      0.00
   0.00000000  -0.00146368   0.00000000          0.00   -215.32      0.00
   0.00000000   0.00000000  -0.00143004          0.00      0.00   -210.37

     BFGS Geometry Optimization

     number of scf cycles    =   1
     number of bfgs steps    =   0

     enthalpy new            =    -470.3534250930 Ry

     new trust radius        =       0.1772617767 bohr
     new conv_thr            =            1.0E-10 Ry

     new unit-cell volume =    525.51502 a.u.^3 (    77.87329 Ang^3 )
     density =      6.96399 g/cm^3

CELL_PARAMETERS (alat=  1.88972599)
  -3.390360512   0.000000000   0.000000000
   0.000000000   0.000000000   3.390360512
   0.000000000   6.774806009   0.000000000

ATOMIC_POSITIONS (angstrom)
Ti      -1.695180256   1.693701502   1.695180256
Nb      -3.390360512   3.398076645   3.390360512
Nb      -1.695180256   5.081104507   1.695180256
Nb      -3.390360512   6.764132369   3.390360512

     NEW-OLD atomic charge density approx. for the potential
     extrapolated charge   45.18205, renormalised to   51.00000

[...]

     iteration #  1     ecut=    50.00 Ry     beta= 0.60
     Davidson diagonalization with overlap
     c_bands:  1 eigenvalues not converged
     c_bands:  1 eigenvalues not converged
     c_bands:  1 eigenvalues not converged
     c_bands:  1 eigenvalues not converged
     c_bands:  1 eigenvalues not converged
     c_bands:  1 eigenvalues not converged
     c_bands:  1 eigenvalues not converged
     c_bands:  2 eigenvalues not converged
     c_bands:  1 eigenvalues not converged
     c_bands:  1 eigenvalues not converged
     c_bands:  1 eigenvalues not converged
     c_bands:  1 eigenvalues not converged
     c_bands:  2 eigenvalues not converged
     c_bands:  1 eigenvalues not converged
     c_bands:  1 eigenvalues not converged
     c_bands:  1 eigenvalues not converged
     c_bands:  1 eigenvalues not converged
     c_bands:  1 eigenvalues not converged
     ethr =  1.00E-06,  avg # of iterations = 14.0

[...]

     enthalpy old            =    -470.3534250930 Ry
     enthalpy new            =    -470.4243507324 Ry

     CASE: enthalpy_new < enthalpy_old

[...]

     iteration #  2     ecut=    50.00 Ry     beta= 0.60
     Davidson diagonalization with overlap
     c_bands:  1 eigenvalues not converged
     ethr =  3.72E-06,  avg # of iterations =  5.3

[...]

     Threshold (ethr) on eigenvalues was too large:
     Diagonalizing with lowered threshold

     Davidson diagonalization with overlap
     ethr =  8.33E-08,  avg # of iterations =  1.8

[...]

     Total force =     0.000099     Total SCF correction =     0.000016
     SCF correction compared to forces is large: reduce conv_thr to get better values

[...]

     small trust_radius: resetting bfgs history

[...]

     number of scf cycles    =  11
     number of bfgs steps    =  10

     enthalpy old            =    -470.4433323294 Ry
     enthalpy new            =    -470.4433323383 Ry

     CASE: enthalpy_new < enthalpy_old

     WARNING: bfgs curvature condition failed, Theta= 0.959
     Message from routine bfgs:
     history already reset at previous step: stopping
     small trust_radius: resetting bfgs history

     new trust radius        =       0.0000565974 bohr
     new conv_thr            =            3.5E-12 Ry

     new unit-cell volume =    481.60585 a.u.^3 (    71.36662 Ang^3 )
     density =      7.59892 g/cm^3

[...]

ATOMIC_POSITIONS (angstrom)
Ti      -1.649269252   1.639804744   1.649269252
Nb      -3.298538504   3.305994536   3.298538504
Nb      -1.649269252   4.919414232   1.649269252
Nb      -3.298538504   6.532833928   3.298538504

     NEW-OLD atomic charge density approx. for the potential
     extrapolated charge   50.99994, renormalised to   51.00000

[...]

     Threshold (ethr) on eigenvalues was too large:
     Diagonalizing with lowered threshold

     Davidson diagonalization with overlap
     ethr =  2.08E-12,  avg # of iterations =  4.4

[...]

     Total force =     0.000042     Total SCF correction =     0.000000

[...]

     bfgs converged in  12 scf cycles and  11 bfgs steps
     (criteria: energy <  1.0E-10 Ry, force <  1.0E-05Ry/Bohr, cell <  1.0E-03kbar)

     End of BFGS Geometry Optimization

     Final enthalpy =    -470.4433323448 Ry
Begin final coordinates
     new unit-cell volume =    481.60585 a.u.^3 (    71.36662 Ang^3 )
     density =      7.59892 g/cm^3

CELL_PARAMETERS (alat=  1.88972599)
  -3.298538504   0.000000000   0.000000000
   0.000000000   0.000000000   3.298538504
   0.000000000   6.559218976   0.000000000

ATOMIC_POSITIONS (angstrom)
Ti      -1.649269252   1.639804744   1.649269252
Nb      -3.298538504   3.305994536   3.298538504
Nb      -1.649269252   4.919414232   1.649269252
Nb      -3.298538504   6.532833928   3.298538504
End final coordinates

     A final scf calculation at the relaxed structure.
     The G-vectors are recalculated for the final unit cell
     Results may differ from those at the preceding step.

     bravais-lattice index     =            0
     lattice parameter (alat)  =       1.8897  a.u.
     unit-cell volume          =     481.6058 (a.u.)^3
     number of atoms/cell      =            4
     number of atomic types    =            2
     number of electrons       =        51.00
     number of Kohn-Sham states=           31
     kinetic-energy cutoff     =      50.0000  Ry
     charge density cutoff     =     500.0000  Ry
     convergence threshold     =      3.5E-12
     mixing beta               =       0.6000
     number of iterations used =            8  plain     mixing
     Exchange-correlation      = SLA PW PBE PBE ( 1  4  3  4 0 0)

     celldm(1)=   1.889726  celldm(2)=   0.000000  celldm(3)=   0.000000
     celldm(4)=   0.000000  celldm(5)=   0.000000  celldm(6)=   0.000000

     crystal axes: (cart. coord. in units of alat)
               a(1) = (  -3.298539   0.000000   0.000000 )
               a(2) = (   0.000000   0.000000   3.298539 )
               a(3) = (   0.000000   6.559219   0.000000 )

     reciprocal axes: (cart. coord. in units 2 pi/alat)
               b(1) = ( -0.303165  0.000000  0.000000 )
               b(2) = (  0.000000  0.000000  0.303165 )
               b(3) = (  0.000000  0.152457  0.000000 )

     PseudoPot. # 1 for Nb read from file:
     ./Nb.pbe-nsp-van.UPF
     MD5 check sum: 0a22fc7fb0ba19a08ca5db297a5d2854
     Pseudo is Ultrasoft + core correction, Zval = 13.0
     Generated by new atomic code, or converted to UPF format
     Using radial grid of  887 points,  6 beta functions with:
                l(1) =   0
                l(2) =   0
                l(3) =   1
                l(4) =   1
                l(5) =   2
                l(6) =   2
     Q(r) pseudized with  6 coefficients,  rinner =    1.000   1.000   1.000
                                                       1.000   1.000

     PseudoPot. # 2 for Ti read from file:
     ./Ti.pbe-sp-van_ak.UPF
     MD5 check sum: f98fea3e8887528921fefa5636a534ca
     Pseudo is Ultrasoft, Zval = 12.0
     Generated by new atomic code, or converted to UPF format
     Using radial grid of  851 points,  6 beta functions with:
                l(1) =   0
                l(2) =   0
                l(3) =   1
                l(4) =   1
                l(5) =   2
                l(6) =   2
     Q(r) pseudized with  8 coefficients,  rinner =    1.000   1.000   1.000
                                                       1.000   1.000

     atomic species   valence    mass     pseudopotential
        Nb            13.00    92.90638     Nb( 1.00)
        Ti            12.00    47.86700     Ti( 1.00)

     16 Sym. Ops., with inversion, found ( 8 have fractional translation)

   Cartesian axes

     site n.     atom                  positions (alat units)
         1           Ti  tau(   1) = (  -1.6492694   1.6398049   1.6492694  )
         2           Nb  tau(   2) = (  -3.2985388   3.3059948   3.2985388  )
         3           Nb  tau(   3) = (  -1.6492694   4.9194146   1.6492694  )
         4           Nb  tau(   4) = (  -3.2985388   6.5328344   3.2985388  )

     number of k points=   225  Marzari-Vanderbilt smearing, width (Ry)=  0.0200

     Number of k-points >= 100: set verbosity='high' to print them.

     Initial potential from superposition of free atoms

     starting charge   49.99176, renormalised to   51.00000
     Starting wfcs are   49 randomized atomic wfcs

     Self-consistent Calculation

[...]

     total energy              =    -470.44283616 Ry
     Harris-Foulkes estimate   =    -470.44283616 Ry
     estimated scf accuracy    <          1.3E-10 Ry

     iteration # 32     ecut=    50.00 Ry     beta= 0.60
     Davidson diagonalization with overlap
     ethr =  2.47E-13,  avg # of iterations =  4.1

     End of self-consistent calculation

     Number of k-points >= 100: set verbosity='high' to print the bands.

     the Fermi energy is    16.8192 ev

!    total energy              =    -470.44283616 Ry
     Harris-Foulkes estimate   =    -470.44283616 Ry
     estimated scf accuracy    <          8.0E-13 Ry

     The total energy is the sum of the following terms:

     one-electron contribution =     -89.75798009 Ry
     hartree contribution      =      69.47039936 Ry
     xc contribution           =     -69.86153863 Ry
     ewald contribution        =    -380.29334967 Ry
     smearing contrib. (-TS)   =      -0.00036712 Ry

     convergence has been achieved in  32 iterations

     Forces acting on atoms (cartesian axes, Ry/au):

     atom    1 type  2   force =     0.00000000    0.00000000    0.00000000
     atom    2 type  1   force =     0.00000000   -0.00000786    0.00000000
     atom    3 type  1   force =     0.00000000    0.00000000    0.00000000
     atom    4 type  1   force =     0.00000000    0.00000786    0.00000000

     Total force =     0.000011     Total SCF correction =     0.000004
     SCF correction compared to forces is large: reduce conv_thr to get better values

     Computing stress (Cartesian axis) and pressure

          total   stress  (Ry/bohr**3)                   (kbar)     P=   -1.34
  -0.00000887   0.00000000   0.00000000         -1.30      0.00      0.00
   0.00000000  -0.00000952   0.00000000          0.00     -1.40      0.00
   0.00000000   0.00000000  -0.00000887          0.00      0.00     -1.30

     General routines

     Parallel routines

       3h

   This run was terminated on:  14:52:53  28Jan2020

   JOB DONE.