     Program PWSCF v.6.0 (svn rev. 13079) starts on 26Apr2018 at 18:12:10

     Current dimensions of program PWSCF are:
     Max number of different atomic species (ntypx) = 10
     Max number of k-points (npk) =  40000
     Max angular momentum in pseudopotentials (lmaxx) =  3

     Subspace diagonalization in iterative solution of the eigenvalue problem:
     a serial algorithm will be used

     bravais-lattice index     =            0
     lattice parameter (alat)  =       1.8897  a.u.
     unit-cell volume          =     538.8952 (a.u.)^3
     number of atoms/cell      =            4
     number of atomic types    =            2
     number of electrons       =        51.00
     number of Kohn-Sham states=           31
     kinetic-energy cutoff     =      40.0000  Ry
     charge density cutoff     =     400.0000  Ry
     convergence threshold     =      1.0E-10
     mixing beta               =       0.6000
     number of iterations used =            8  plain     mixing
     Exchange-correlation      = SLA  PW   PBE  PBE ( 1  4  3  4 0 0)
     nstep                     =           50

     celldm(1)=   1.889726  celldm(2)=   0.000000  celldm(3)=   0.000000
     celldm(4)=   0.000000  celldm(5)=   0.000000  celldm(6)=   0.000000

     crystal axes: (cart. coord. in units of alat)
               a(1) = (   1.522502  -2.637051   0.000000 )
               a(2) = (   0.000000   0.000000  -4.972461 )
               a(3) = (   4.567506   2.637051   0.000000 )

     reciprocal axes: (cart. coord. in units 2 pi/alat)
               b(1) = (  0.164203 -0.284409  0.000000 )
               b(2) = (  0.000000  0.000000 -0.201108 )
               b(3) = (  0.164203  0.094803  0.000000 )

     PseudoPot. # 1 for Nb read from file:
     ./Nb.pbe-nsp-van.UPF
     MD5 check sum: 0a22fc7fb0ba19a08ca5db297a5d2854
     Pseudo is Ultrasoft + core correction, Zval = 13.0
     Generated by new atomic code, or converted to UPF format
     Using radial grid of  887 points,  6 beta functions with:
                l(1) =   0
                l(2) =   0
                l(3) =   1
                l(4) =   1
                l(5) =   2
                l(6) =   2
     Q(r) pseudized with  6 coefficients,  rinner =    1.000   1.000   1.000
                                                       1.000   1.000

     PseudoPot. # 2 for Ti read from file:
     ./Ti.pbe-sp-van_ak.UPF
     MD5 check sum: f98fea3e8887528921fefa5636a534ca
     Pseudo is Ultrasoft, Zval = 12.0
     Generated by new atomic code, or converted to UPF format
     Using radial grid of  851 points,  6 beta functions with:
                l(1) =   0
                l(2) =   0
                l(3) =   1
                l(4) =   1
                l(5) =   2
                l(6) =   2
     Q(r) pseudized with  8 coefficients,  rinner =    1.000   1.000   1.000
                                                       1.000   1.000

     atomic species   valence    mass     pseudopotential
        Nb            13.00    92.90638     Nb( 1.00)
        Ti            12.00    47.86700     Ti( 1.00)

      4 Sym. Ops. (no inversion) found

   Cartesian axes

     site n.     atom                  positions (alat units)
         1           Ti  tau(   1) = (   3.0450042   0.0000000  -4.9724614  )
         2           Nb  tau(   2) = (   3.0450058  -1.7580350  -2.4862307  )
         3           Nb  tau(   3) = (   6.0900085   0.0000000  -4.9724614  )
         4           Nb  tau(   4) = (   4.5675079   0.8790162  -2.4862307  )

     number of k points=   360  Marzari-Vanderbilt smearing, width (Ry)=  0.0200

     Number of k-points >= 100: set verbosity='high' to print them.

     Check: negative/imaginary core charge=   -0.000001    0.000000

     Initial potential from superposition of free atoms

     starting charge   49.99176, renormalised to   51.00000
     Starting wfc are   49 randomized atomic wfcs

     Self-consistent Calculation

     iteration #  1     ecut=    40.00 Ry     beta=0.60
     Davidson diagonalization with overlap
     ethr =  1.00E-02,  avg # of iterations =  2.2

     total energy              =    -450.63721922 Ry
     Harris-Foulkes estimate   =    -472.44989629 Ry
     estimated scf accuracy    <      27.23915033 Ry

[...]

     End of self-consistent calculation

     Number of k-points >= 100: set verbosity='high' to print the bands.

     the Fermi energy is    15.0751 ev

!    total energy              =    -470.35617584 Ry
     Harris-Foulkes estimate   =    -470.35617584 Ry
     estimated scf accuracy    <          9.9E-12 Ry

     The total energy is the sum of the following terms:

     one-electron contribution =    -109.40904741 Ry
     hartree contribution      =      74.98630738 Ry
     xc contribution           =     -69.41445856 Ry
     ewald contribution        =    -366.51692832 Ry
     smearing contrib. (-TS)   =      -0.00204894 Ry

     convergence has been achieved in  31 iterations

     Forces acting on atoms (Ry/au):

     atom    1 type  2   force =    -0.00192884   -0.00111361    0.00000000
     atom    2 type  1   force =     0.00143744    0.00082991    0.00000000
     atom    3 type  1   force =     0.00218660    0.00126243    0.00000000
     atom    4 type  1   force =    -0.00169520   -0.00097873    0.00000000

     Total force =     0.004233     Total SCF correction =     0.000006

     entering subroutine stress ...

          total   stress  (Ry/bohr**3)                   (kbar)     P= -115.25
  -0.00089385   0.00001566   0.00000000       -131.49      2.30      0.00
   0.00001566  -0.00091194   0.00000000          2.30   -134.15      0.00
   0.00000000   0.00000000  -0.00054453          0.00      0.00    -80.10

     BFGS Geometry Optimization

     number of scf cycles    =   1
     number of bfgs steps    =   0

     enthalpy new            =    -470.3561758404 Ry

     new trust radius        =       0.1058646916 bohr
     new conv_thr            =            1.0E-10 Ry

     new unit-cell volume =    507.83267 a.u.^3 (    75.25304 Ang^3 )

CELL_PARAMETERS (alat=  1.88972599)
   1.487447170  -2.576334257   0.000000000
   0.000000000   0.000000000  -4.904769589
   4.466471527   2.578718724   0.000000000

ATOMIC_POSITIONS (angstrom)
Ti       2.975961230   0.000615970  -4.904769589
Nb       2.977016335  -1.716332755  -2.452384794
Nb       5.955050200   0.003037740  -4.904769589
Nb       4.464907460   0.860257820  -2.452384794

     NEW-OLD atomic charge density approx. for the potential

     Check: negative/imaginary core charge=   -0.000001    0.000000
     extrapolated charge   47.94216, renormalised to   51.00000

[...]

     iteration #  1     ecut=    40.00 Ry     beta=0.60
     Davidson diagonalization with overlap
     c_bands:  1 eigenvalues not converged
     c_bands:  1 eigenvalues not converged
     c_bands:  1 eigenvalues not converged
     c_bands:  1 eigenvalues not converged
     c_bands:  1 eigenvalues not converged
     c_bands:  1 eigenvalues not converged
     c_bands:  1 eigenvalues not converged
     c_bands:  1 eigenvalues not converged
     c_bands:  1 eigenvalues not converged
     c_bands:  1 eigenvalues not converged
     c_bands:  1 eigenvalues not converged
     c_bands:  1 eigenvalues not converged
     c_bands:  1 eigenvalues not converged
     c_bands:  1 eigenvalues not converged
     c_bands:  1 eigenvalues not converged
     c_bands:  1 eigenvalues not converged
     c_bands:  1 eigenvalues not converged
     c_bands:  1 eigenvalues not converged
     c_bands:  1 eigenvalues not converged
     c_bands:  1 eigenvalues not converged
     c_bands:  1 eigenvalues not converged
     c_bands:  1 eigenvalues not converged
     c_bands:  1 eigenvalues not converged
     c_bands:  1 eigenvalues not converged
     c_bands:  1 eigenvalues not converged
     c_bands:  1 eigenvalues not converged
     c_bands:  1 eigenvalues not converged
     c_bands:  1 eigenvalues not converged
     c_bands:  1 eigenvalues not converged
     c_bands:  1 eigenvalues not converged
     c_bands:  1 eigenvalues not converged
     c_bands:  1 eigenvalues not converged
     c_bands:  1 eigenvalues not converged
     c_bands:  1 eigenvalues not converged
     c_bands:  1 eigenvalues not converged
     c_bands:  1 eigenvalues not converged
     c_bands:  1 eigenvalues not converged
     c_bands:  1 eigenvalues not converged
     c_bands:  1 eigenvalues not converged
     c_bands:  1 eigenvalues not converged
     c_bands:  1 eigenvalues not converged
     c_bands:  1 eigenvalues not converged
     c_bands:  1 eigenvalues not converged
     c_bands:  1 eigenvalues not converged
     ethr =  1.00E-06,  avg # of iterations = 14.7

[...]

     enthalpy old            =    -470.3561758404 Ry
     enthalpy new            =    -470.3745939185 Ry

     CASE: enthalpy_new < enthalpy_old

[...]

     WARNING: bfgs curvature condition failed, Theta= 0.924
     new trust radius        =       0.0489794119 bohr
     new conv_thr            =            1.0E-10 Ry

[...]

     NEW-OLD atomic charge density approx. for the potential
     extrapolated charge   51.20751, renormalised to   51.00000

[...]

     WARNING: bfgs curvature condition failed, Theta= 0.922
     new trust radius        =       0.0084450515 bohr
     new conv_thr            =            1.0E-10 Ry

[...]

     NEW-OLD atomic charge density approx. for the potential

     Check: negative/imaginary core charge=   -0.000001    0.000000
     extrapolated charge   50.70066, renormalised to   51.00000

[...]

     Threshold (ethr) on eigenvalues was too large:
     Diagonalizing with lowered threshold

     Davidson diagonalization with overlap
     ethr =  4.91E-08,  avg # of iterations =  2.2

[...]

     Total force =     0.000040     Total SCF correction =     0.000006
     SCF correction compared to forces is large: reduce conv_thr to get better values

[...]

     small trust_radius: resetting bfgs history

[...]

     number of scf cycles    =  39
     number of bfgs steps    =  38

     enthalpy old            =    -470.4055942673 Ry
     enthalpy new            =    -470.4055942673 Ry

     CASE: enthalpy_new < enthalpy_old

     Message from routine bfgs:
     history already reset at previous step: stopping
     small trust_radius: resetting bfgs history

     new trust radius        =       0.0000017030 bohr
     new conv_thr            =            1.0E-12 Ry

     new unit-cell volume =    489.72050 a.u.^3 (    72.56909 Ang^3 )

[...]

ATOMIC_POSITIONS (angstrom)
Ti       3.201891437   0.289791280  -4.884096853
Nb       2.801053529  -1.500455804  -2.442048427
Nb       6.288015085   0.512744003  -4.884096853
Nb       4.467934294   1.020739955  -2.442048427

     NEW-OLD atomic charge density approx. for the potential
     extrapolated charge   50.99996, renormalised to   51.00000

[...]

     Threshold (ethr) on eigenvalues was too large:
     Diagonalizing with lowered threshold

     Davidson diagonalization with overlap
     ethr =  5.62E-13,  avg # of iterations =  2.9

[...]

     Total force =     0.000001     Total SCF correction =     0.000001
     SCF correction compared to forces is large: reduce conv_thr to get better values

[...]

     bfgs converged in  40 scf cycles and  39 bfgs steps
     (criteria: energy <  1.0E-10, force <  1.0E-05, cell <  1.0E-03)

     End of BFGS Geometry Optimization

     Final enthalpy =    -470.4055942673 Ry
Begin final coordinates
     new unit-cell volume =    489.72050 a.u.^3 (    72.56909 Ang^3 )

CELL_PARAMETERS (alat=  1.88972599)
   1.349979068  -2.338232517   0.000000000
   0.000000000   0.000000000  -4.884096853
   4.765857825   2.751569402   0.000000000

ATOMIC_POSITIONS (angstrom)
Ti       3.201891437   0.289791280  -4.884096853
Nb       2.801053529  -1.500455804  -2.442048427
Nb       6.288015085   0.512744003  -4.884096853
Nb       4.467934294   1.020739955  -2.442048427
End final coordinates

     A final scf calculation at the relaxed structure.
     The G-vectors are recalculated for the final unit cell
     Results may differ from those at the preceding step.

   Info: using nr1, nr2, nr3 values from input

   Info: using nr1, nr2, nr3 values from input

     bravais-lattice index     =            0
     lattice parameter (alat)  =       1.8897  a.u.
     unit-cell volume          =     489.7205 (a.u.)^3
     number of atoms/cell      =            4
     number of atomic types    =            2
     number of electrons       =        51.00
     number of Kohn-Sham states=           31
     kinetic-energy cutoff     =      40.0000  Ry
     charge density cutoff     =     400.0000  Ry
     convergence threshold     =      1.0E-12
     mixing beta               =       0.6000
     number of iterations used =            8  plain     mixing
     Exchange-correlation      = SLA  PW   PBE  PBE ( 1  4  3  4 0 0)

     celldm(1)=   1.889726  celldm(2)=   0.000000  celldm(3)=   0.000000
     celldm(4)=   0.000000  celldm(5)=   0.000000  celldm(6)=   0.000000

     crystal axes: (cart. coord. in units of alat)
               a(1) = (   1.349979  -2.338233   0.000000 )
               a(2) = (   0.000000   0.000000  -4.884097 )
               a(3) = (   4.765858   2.751569   0.000000 )

     reciprocal axes: (cart. coord. in units 2 pi/alat)
               b(1) = (  0.185188 -0.320755  0.000000 )
               b(2) = (  0.000000  0.000000 -0.204746 )
               b(3) = (  0.157369  0.090857  0.000000 )

     PseudoPot. # 1 for Nb read from file:
     ./Nb.pbe-nsp-van.UPF
     MD5 check sum: 0a22fc7fb0ba19a08ca5db297a5d2854
     Pseudo is Ultrasoft + core correction, Zval = 13.0
     Generated by new atomic code, or converted to UPF format
     Using radial grid of  887 points,  6 beta functions with:
                l(1) =   0
                l(2) =   0
                l(3) =   1
                l(4) =   1
                l(5) =   2
                l(6) =   2
     Q(r) pseudized with  6 coefficients,  rinner =    1.000   1.000   1.000
                                                       1.000   1.000

     PseudoPot. # 2 for Ti read from file:
     ./Ti.pbe-sp-van_ak.UPF
     MD5 check sum: f98fea3e8887528921fefa5636a534ca
     Pseudo is Ultrasoft, Zval = 12.0
     Generated by new atomic code, or converted to UPF format
     Using radial grid of  851 points,  6 beta functions with:
                l(1) =   0
                l(2) =   0
                l(3) =   1
                l(4) =   1
                l(5) =   2
                l(6) =   2
     Q(r) pseudized with  8 coefficients,  rinner =    1.000   1.000   1.000
                                                       1.000   1.000

     atomic species   valence    mass     pseudopotential
        Nb            13.00    92.90638     Nb( 1.00)
        Ti            12.00    47.86700     Ti( 1.00)

      4 Sym. Ops. (no inversion) found

   Cartesian axes

     site n.     atom                  positions (alat units)
         1           Ti  tau(   1) = (   3.2018917   0.2897913  -4.8840972  )
         2           Nb  tau(   2) = (   2.8010537  -1.5004559  -2.4420486  )
         3           Nb  tau(   3) = (   6.2880156   0.5127440  -4.8840972  )
         4           Nb  tau(   4) = (   4.4679346   1.0207400  -2.4420486  )

     number of k points=   360  Marzari-Vanderbilt smearing, width (Ry)=  0.0200

     Number of k-points >= 100: set verbosity='high' to print them.

     Check: negative/imaginary core charge=   -0.000001    0.000000

     Initial potential from superposition of free atoms

     starting charge   49.99176, renormalised to   51.00000
     Starting wfc are   49 randomized atomic wfcs

     Self-consistent Calculation

[...]

     iteration # 12     ecut=    40.00 Ry     beta=0.60
     Davidson diagonalization with overlap
     c_bands:  1 eigenvalues not converged
     ethr =  9.87E-05,  avg # of iterations =  6.5

[...]

     total energy              =    -470.40446700 Ry
     Harris-Foulkes estimate   =    -470.40446700 Ry
     estimated scf accuracy    <          1.0E-12 Ry

     iteration # 36     ecut=    40.00 Ry     beta=0.60
     Davidson diagonalization with overlap
     ethr =  1.00E-13,  avg # of iterations =  1.0

     End of self-consistent calculation

     Number of k-points >= 100: set verbosity='high' to print the bands.

     the Fermi energy is    16.6941 ev

!    total energy              =    -470.40446700 Ry
     Harris-Foulkes estimate   =    -470.40446700 Ry
     estimated scf accuracy    <          1.0E-13 Ry

     The total energy is the sum of the following terms:

     one-electron contribution =     -93.50683206 Ry
     hartree contribution      =      70.66390606 Ry
     xc contribution           =     -69.81708155 Ry
     ewald contribution        =    -377.74352885 Ry
     smearing contrib. (-TS)   =      -0.00093061 Ry

     convergence has been achieved in  36 iterations

     Forces acting on atoms (Ry/au):

     atom    1 type  2   force =     0.00004026    0.00002324    0.00000000
     atom    2 type  1   force =    -0.00000996   -0.00000575    0.00000000
     atom    3 type  1   force =    -0.00001158   -0.00000669    0.00000000
     atom    4 type  1   force =    -0.00001872   -0.00001081    0.00000000

     Total force =     0.000054     Total SCF correction =     0.000000

     entering subroutine stress ...

          total   stress  (Ry/bohr**3)                   (kbar)     P=   -0.63
  -0.00000065   0.00000711   0.00000000         -0.10      1.05      0.00
   0.00000711  -0.00000886   0.00000000          1.05     -1.30      0.00
   0.00000000   0.00000000  -0.00000338          0.00      0.00     -0.50

     General routines

     Parallel routines

   This run was terminated on:   1:22:21  27Apr2018

   JOB DONE.