     Program PWSCF v.6.0 (svn rev. 13079) starts on  2May2018 at 10:51:26

     Current dimensions of program PWSCF are:
     Max number of different atomic species (ntypx) = 10
     Max number of k-points (npk) =  40000
     Max angular momentum in pseudopotentials (lmaxx) =  3

     Subspace diagonalization in iterative solution of the eigenvalue problem:
     a serial algorithm will be used

     bravais-lattice index     =            0
     lattice parameter (alat)  =       1.8897  a.u.
     unit-cell volume          =     733.3418 (a.u.)^3
     number of atoms/cell      =            5
     number of atomic types    =            2
     number of electrons       =        62.00
     number of Kohn-Sham states=           37
     kinetic-energy cutoff     =      50.0000  Ry
     charge density cutoff     =     500.0000  Ry
     convergence threshold     =      1.0E-10
     mixing beta               =       0.6000
     number of iterations used =            8  plain     mixing
     Exchange-correlation      = SLA  PW   PBE  PBE ( 1  4  3  4 0 0)
     nstep                     =           50

     celldm(1)=   1.889726  celldm(2)=   0.000000  celldm(3)=   0.000000
     celldm(4)=   0.000000  celldm(5)=   0.000000  celldm(6)=   0.000000

     crystal axes: (cart. coord. in units of alat)
               a(1) = (  -1.758031   1.758031   5.274095 )
               a(2) = (  -1.758031   5.274095   1.758031 )
               a(3) = (  -5.274095   1.758031   1.758031 )

     reciprocal axes: (cart. coord. in units 2 pi/alat)
               b(1) = (  0.056882 -0.056882  0.227527 )
               b(2) = (  0.056882  0.227527 -0.056882 )
               b(3) = ( -0.227527 -0.056882 -0.056882 )

     PseudoPot. # 1 for Nb read from file:
     ./Nb.pbe-nsp-van.UPF
     MD5 check sum: 0a22fc7fb0ba19a08ca5db297a5d2854
     Pseudo is Ultrasoft + core correction, Zval = 13.0
     Generated by new atomic code, or converted to UPF format
     Using radial grid of  887 points,  6 beta functions with:
                l(1) =   0
                l(2) =   0
                l(3) =   1
                l(4) =   1
                l(5) =   2
                l(6) =   2
     Q(r) pseudized with  6 coefficients,  rinner =    1.000   1.000   1.000
                                                       1.000   1.000

     PseudoPot. # 2 for Ti read from file:
     ./Ti.pbe-sp-van_ak.UPF
     MD5 check sum: f98fea3e8887528921fefa5636a534ca
     Pseudo is Ultrasoft, Zval = 12.0
     Generated by new atomic code, or converted to UPF format
     Using radial grid of  851 points,  6 beta functions with:
                l(1) =   0
                l(2) =   0
                l(3) =   1
                l(4) =   1
                l(5) =   2
                l(6) =   2
     Q(r) pseudized with  8 coefficients,  rinner =    1.000   1.000   1.000
                                                       1.000   1.000

     atomic species   valence    mass     pseudopotential
        Nb            13.00    92.90638     Nb( 1.00)
        Ti            12.00    47.86700     Ti( 1.00)

     12 Sym. Ops., with inversion, found ( 6 have fractional translation)

   Cartesian axes

     site n.     atom                  positions (alat units)
         1           Ti  tau(   1) = (  -3.5160633   3.5160633   3.5160633  )
         2           Ti  tau(   2) = (  -5.2740949   5.2740949   5.2740949  )
         3           Ti  tau(   3) = (  -7.0321265   7.0321265   7.0321265  )
         4           Nb  tau(   4) = (  -8.7901582   8.7901582   8.7901582  )
         5           Nb  tau(   5) = (  -1.7580316   1.7580316   1.7580316  )

     number of k points=   189  Marzari-Vanderbilt smearing, width (Ry)=  0.0200

     Number of k-points >= 100: set verbosity='high' to print them.

     Initial potential from superposition of free atoms

     starting charge   58.99440, renormalised to   62.00000
     Starting wfc are   56 randomized atomic wfcs

     Self-consistent Calculation

     iteration #  1     ecut=    50.00 Ry     beta=0.60
     Davidson diagonalization with overlap
     ethr =  1.00E-02,  avg # of iterations =  3.1

     total energy              =    -580.31620923 Ry
     Harris-Foulkes estimate   =    -587.38699992 Ry
     estimated scf accuracy    <       9.10188166 Ry

[...]

     iteration # 26     ecut=    50.00 Ry     beta=0.60
     Davidson diagonalization with overlap
     c_bands:  1 eigenvalues not converged
     c_bands:  1 eigenvalues not converged
     c_bands:  1 eigenvalues not converged
     ethr =  4.96E-06,  avg # of iterations =  5.4

[...]

     End of self-consistent calculation

     Number of k-points >= 100: set verbosity='high' to print the bands.

     the Fermi energy is    11.7314 ev

!    total energy              =    -585.68749815 Ry
     Harris-Foulkes estimate   =    -585.68749815 Ry
     estimated scf accuracy    <          6.2E-11 Ry

     The total energy is the sum of the following terms:

     one-electron contribution =    -201.72240738 Ry
     hartree contribution      =     117.06675649 Ry
     xc contribution           =     -79.62110575 Ry
     ewald contribution        =    -421.40961197 Ry
     smearing contrib. (-TS)   =      -0.00112954 Ry

     convergence has been achieved in  43 iterations

     Forces acting on atoms (Ry/au):

     atom    1 type  2   force =     0.00845756   -0.00845756   -0.00845756
     atom    2 type  2   force =    -0.00000000   -0.00000000    0.00000000
     atom    3 type  2   force =    -0.00845756    0.00845756    0.00845756
     atom    4 type  1   force =    -0.00756134    0.00756134    0.00756134
     atom    5 type  1   force =     0.00756134   -0.00756134   -0.00756134

     Total force =     0.027789     Total SCF correction =     0.000008

     entering subroutine stress ...

          total   stress  (Ry/bohr**3)                   (kbar)     P= -194.70
  -0.00132353   0.00002364   0.00002364       -194.70      3.48      3.48
   0.00002364  -0.00132353  -0.00002364          3.48   -194.70     -3.48
   0.00002364  -0.00002364  -0.00132353          3.48     -3.48   -194.70

     BFGS Geometry Optimization

     number of scf cycles    =   1
     number of bfgs steps    =   0

     enthalpy new            =    -585.6874981524 Ry

     new trust radius        =       0.1792648693 bohr
     new conv_thr            =            1.0E-10 Ry

     new unit-cell volume =    662.92825 a.u.^3 (    98.23583 Ang^3 )

CELL_PARAMETERS (alat=  1.88972599)
  -1.695704616   1.695704616   5.097505724
  -1.695704616   5.097505724   1.695704616
  -5.097505724   1.695704616   1.695704616

ATOMIC_POSITIONS (angstrom)
Ti      -3.391243813   3.391243813   3.391243813
Ti      -5.093348974   5.093348974   5.093348974
Ti      -6.795454134   6.795454134   6.795454134
Nb      -8.492779121   8.492779121   8.492779121
Nb      -1.693918827   1.693918827   1.693918827

     NEW-OLD atomic charge density approx. for the potential
     extrapolated charge   55.73385, renormalised to   62.00000

[...]

     enthalpy old            =    -585.6874981524 Ry
     enthalpy new            =    -585.7669363948 Ry

     CASE: enthalpy_new < enthalpy_old

[...]

     WARNING: bfgs curvature condition failed, Theta= 0.979
     new trust radius        =       0.0164942942 bohr
     new conv_thr            =            1.0E-10 Ry

[...]

     Threshold (ethr) on eigenvalues was too large:
     Diagonalizing with lowered threshold

     Davidson diagonalization with overlap
     ethr =  8.73E-10,  avg # of iterations =  4.7

[...]

     small trust_radius: resetting bfgs history

[...]

     number of scf cycles    =  18
     number of bfgs steps    =  17

     enthalpy old            =    -585.8080248212 Ry
     enthalpy new            =    -585.8080248228 Ry

     CASE: enthalpy_new < enthalpy_old

     WARNING: bfgs curvature condition failed, Theta= 0.977
     Message from routine bfgs:
     history already reset at previous step: stopping
     small trust_radius: resetting bfgs history

     new trust radius        =       0.0000185235 bohr
     new conv_thr            =            1.1E-12 Ry

     new unit-cell volume =    589.97059 a.u.^3 (    87.42462 Ang^3 )

[...]

ATOMIC_POSITIONS (angstrom)
Ti      -3.163594157   3.163594157   3.163594157
Ti      -4.794383332   4.794383332   4.794383332
Ti      -6.425172508   6.425172508   6.425172508
Nb      -8.050080172   8.050080172   8.050080172
Nb      -1.538686492   1.538686492   1.538686492

     NEW-OLD atomic charge density approx. for the potential
     extrapolated charge   62.00011, renormalised to   62.00000

[...]

     Threshold (ethr) on eigenvalues was too large:
     Diagonalizing with lowered threshold

     Davidson diagonalization with overlap
     ethr =  1.57E-12,  avg # of iterations =  4.1

[...]

     bfgs converged in  19 scf cycles and  18 bfgs steps
     (criteria: energy <  1.0E-10, force <  1.0E-05, cell <  1.0E-03)

     End of BFGS Geometry Optimization

     Final enthalpy =    -585.8080248238 Ry
Begin final coordinates
     new unit-cell volume =    589.97059 a.u.^3 (    87.42462 Ang^3 )

CELL_PARAMETERS (alat=  1.88972599)
  -1.560979470   1.560979470   4.868679947
  -1.560979470   4.868679947   1.560979470
  -4.868679947   1.560979470   1.560979470

ATOMIC_POSITIONS (angstrom)
Ti      -3.163594157   3.163594157   3.163594157
Ti      -4.794383332   4.794383332   4.794383332
Ti      -6.425172508   6.425172508   6.425172508
Nb      -8.050080172   8.050080172   8.050080172
Nb      -1.538686492   1.538686492   1.538686492
End final coordinates

     A final scf calculation at the relaxed structure.
     The G-vectors are recalculated for the final unit cell
     Results may differ from those at the preceding step.

   Info: using nr1, nr2, nr3 values from input

   Info: using nr1, nr2, nr3 values from input

     bravais-lattice index     =            0
     lattice parameter (alat)  =       1.8897  a.u.
     unit-cell volume          =     589.9706 (a.u.)^3
     number of atoms/cell      =            5
     number of atomic types    =            2
     number of electrons       =        62.00
     number of Kohn-Sham states=           37
     kinetic-energy cutoff     =      50.0000  Ry
     charge density cutoff     =     500.0000  Ry
     convergence threshold     =      1.1E-12
     mixing beta               =       0.6000
     number of iterations used =            8  plain     mixing
     Exchange-correlation      = SLA  PW   PBE  PBE ( 1  4  3  4 0 0)

     celldm(1)=   1.889726  celldm(2)=   0.000000  celldm(3)=   0.000000
     celldm(4)=   0.000000  celldm(5)=   0.000000  celldm(6)=   0.000000

     crystal axes: (cart. coord. in units of alat)
               a(1) = (  -1.560979   1.560979   4.868680 )
               a(2) = (  -1.560979   4.868680   1.560979 )
               a(3) = (  -4.868680   1.560979   1.560979 )

     reciprocal axes: (cart. coord. in units 2 pi/alat)
               b(1) = (  0.059059 -0.059059  0.243265 )
               b(2) = (  0.059059  0.243265 -0.059059 )
               b(3) = ( -0.243265 -0.059059 -0.059059 )

     PseudoPot. # 1 for Nb read from file:
     ./Nb.pbe-nsp-van.UPF
     MD5 check sum: 0a22fc7fb0ba19a08ca5db297a5d2854
     Pseudo is Ultrasoft + core correction, Zval = 13.0
     Generated by new atomic code, or converted to UPF format
     Using radial grid of  887 points,  6 beta functions with:
                l(1) =   0
                l(2) =   0
                l(3) =   1
                l(4) =   1
                l(5) =   2
                l(6) =   2
     Q(r) pseudized with  6 coefficients,  rinner =    1.000   1.000   1.000
                                                       1.000   1.000

     PseudoPot. # 2 for Ti read from file:
     ./Ti.pbe-sp-van_ak.UPF
     MD5 check sum: f98fea3e8887528921fefa5636a534ca
     Pseudo is Ultrasoft, Zval = 12.0
     Generated by new atomic code, or converted to UPF format
     Using radial grid of  851 points,  6 beta functions with:
                l(1) =   0
                l(2) =   0
                l(3) =   1
                l(4) =   1
                l(5) =   2
                l(6) =   2
     Q(r) pseudized with  8 coefficients,  rinner =    1.000   1.000   1.000
                                                       1.000   1.000

     atomic species   valence    mass     pseudopotential
        Nb            13.00    92.90638     Nb( 1.00)
        Ti            12.00    47.86700     Ti( 1.00)

     12 Sym. Ops., with inversion, found ( 6 have fractional translation)

   Cartesian axes

     site n.     atom                  positions (alat units)
         1           Ti  tau(   1) = (  -3.1635944   3.1635944   3.1635944  )
         2           Ti  tau(   2) = (  -4.7943837   4.7943837   4.7943837  )
         3           Ti  tau(   3) = (  -6.4251730   6.4251730   6.4251730  )
         4           Nb  tau(   4) = (  -8.0500808   8.0500808   8.0500808  )
         5           Nb  tau(   5) = (  -1.5386866   1.5386866   1.5386866  )

     number of k points=   189  Marzari-Vanderbilt smearing, width (Ry)=  0.0200

     Number of k-points >= 100: set verbosity='high' to print them.

     Initial potential from superposition of free atoms

     starting charge   58.99440, renormalised to   62.00000
     Starting wfc are   56 randomized atomic wfcs

     Self-consistent Calculation

     iteration #  1     ecut=    50.00 Ry     beta=0.60
     Davidson diagonalization with overlap
     c_bands:  1 eigenvalues not converged
     c_bands:  1 eigenvalues not converged
     c_bands:  1 eigenvalues not converged
     c_bands:  1 eigenvalues not converged
     c_bands:  1 eigenvalues not converged
     c_bands:  1 eigenvalues not converged
     c_bands:  1 eigenvalues not converged
     c_bands:  1 eigenvalues not converged
     c_bands:  1 eigenvalues not converged
     c_bands:  1 eigenvalues not converged
     c_bands:  1 eigenvalues not converged
     c_bands:  1 eigenvalues not converged
     c_bands:  1 eigenvalues not converged
     c_bands:  1 eigenvalues not converged
     c_bands:  1 eigenvalues not converged
     c_bands:  1 eigenvalues not converged
     c_bands:  1 eigenvalues not converged
     c_bands:  1 eigenvalues not converged
     c_bands:  1 eigenvalues not converged
     c_bands:  1 eigenvalues not converged
     c_bands:  1 eigenvalues not converged
     c_bands:  1 eigenvalues not converged
     c_bands:  1 eigenvalues not converged
     c_bands:  1 eigenvalues not converged
     c_bands:  1 eigenvalues not converged
     c_bands:  1 eigenvalues not converged
     c_bands:  1 eigenvalues not converged
     ethr =  1.00E-06,  avg # of iterations = 14.7

[...]

     total energy              =    -585.80746977 Ry
     Harris-Foulkes estimate   =    -585.80746977 Ry
     estimated scf accuracy    <          1.5E-12 Ry

     iteration # 26     ecut=    50.00 Ry     beta=0.60
     Davidson diagonalization with overlap
     ethr =  1.00E-13,  avg # of iterations =  1.0

     End of self-consistent calculation

     Number of k-points >= 100: set verbosity='high' to print the bands.

     the Fermi energy is    15.2103 ev

!    total energy              =    -585.80746977 Ry
     Harris-Foulkes estimate   =    -585.80746977 Ry
     estimated scf accuracy    <          3.6E-14 Ry

     The total energy is the sum of the following terms:

     one-electron contribution =    -156.25783188 Ry
     hartree contribution      =     103.40091555 Ry
     xc contribution           =     -80.53441616 Ry
     ewald contribution        =    -452.41740081 Ry
     smearing contrib. (-TS)   =       0.00126354 Ry

     convergence has been achieved in  26 iterations

     Forces acting on atoms (Ry/au):

     atom    1 type  2   force =    -0.00001152    0.00001152    0.00001152
     atom    2 type  2   force =     0.00000000   -0.00000000    0.00000000
     atom    3 type  2   force =     0.00001152   -0.00001152   -0.00001152
     atom    4 type  1   force =    -0.00000294    0.00000294    0.00000294
     atom    5 type  1   force =     0.00000294   -0.00000294   -0.00000294

     Total force =     0.000029     Total SCF correction =     0.000000

     entering subroutine stress ...

          total   stress  (Ry/bohr**3)                   (kbar)     P=   -0.58
  -0.00000393  -0.00000040  -0.00000040         -0.58     -0.06     -0.06
  -0.00000040  -0.00000393   0.00000040         -0.06     -0.58      0.06
  -0.00000040   0.00000040  -0.00000393         -0.06      0.06     -0.58

     General routines

     Parallel routines

   This run was terminated on:  19:46:26   2May2018

   JOB DONE.