     Program PWSCF v.6.3MaX starts on 12Mar2020 at 17:24:22

     R & G space division:  proc/nbgrp/npool/nimage =       4
     Waiting for input...
     Reading input from standard input

     Current dimensions of program PWSCF are:
     Max number of different atomic species (ntypx) = 10
     Max number of k-points (npk) =  40000
     Max angular momentum in pseudopotentials (lmaxx) =  3
     Message from routine iosys:
     minimal I/O required, wf_collect reset to FALSE

     Subspace diagonalization in iterative solution of the eigenvalue problem:
     a serial algorithm will be used

     bravais-lattice index     =            0
     lattice parameter (alat)  =       1.8897  a.u.
     unit-cell volume          =     808.3427 (a.u.)^3
     number of atoms/cell      =            6
     number of atomic types    =            2
     number of electrons       =        76.00
     number of Kohn-Sham states=           46
     kinetic-energy cutoff     =      40.0000  Ry
     charge density cutoff     =     400.0000  Ry
     convergence threshold     =      1.0E-10
     mixing beta               =       0.6000
     number of iterations used =            8  plain     mixing
     Exchange-correlation      = SLA PW PBE PBE ( 1  4  3  4 0 0)
     nstep                     =           50

     celldm(1)=   1.889726  celldm(2)=   0.000000  celldm(3)=   0.000000
     celldm(4)=   0.000000  celldm(5)=   0.000000  celldm(6)=   0.000000

     crystal axes: (cart. coord. in units of alat)
               a(1) = (  -1.522502  -2.637051   0.000000 )
               a(2) = (   3.045004   0.000000   0.000000 )
               a(3) = (   0.000000   0.000000  14.917383 )

     reciprocal axes: (cart. coord. in units 2 pi/alat)
               b(1) = (  0.000000 -0.379211  0.000000 )
               b(2) = (  0.328407 -0.189606  0.000000 )
               b(3) = (  0.000000  0.000000  0.067036 )

     PseudoPot. # 1 for Nb read from file:
     ./Nb.pbe-nsp-van.UPF
     MD5 check sum: 0a22fc7fb0ba19a08ca5db297a5d2854
     Pseudo is Ultrasoft + core correction, Zval = 13.0
     Generated by new atomic code, or converted to UPF format
     Using radial grid of  887 points,  6 beta functions with:
                l(1) =   0
                l(2) =   0
                l(3) =   1
                l(4) =   1
                l(5) =   2
                l(6) =   2
     Q(r) pseudized with  6 coefficients,  rinner =    1.000   1.000   1.000
                                                       1.000   1.000

     PseudoPot. # 2 for Ti read from file:
     ./Ti.pbe-sp-van_ak.UPF
     MD5 check sum: f98fea3e8887528921fefa5636a534ca
     Pseudo is Ultrasoft, Zval = 12.0
     Generated by new atomic code, or converted to UPF format
     Using radial grid of  851 points,  6 beta functions with:
                l(1) =   0
                l(2) =   0
                l(3) =   1
                l(4) =   1
                l(5) =   2
                l(6) =   2
     Q(r) pseudized with  8 coefficients,  rinner =    1.000   1.000   1.000
                                                       1.000   1.000

     atomic species   valence    mass     pseudopotential
        Nb            13.00    92.90638     Nb( 1.00)
        Ti            12.00    47.86700     Ti( 1.00)

     12 Sym. Ops. (no inversion) found ( 6 have fractional translation)
          (note: 12 additional sym.ops. were found but ignored
           their fractional translations are incommensurate with FFT grid)

   Cartesian axes

     site n.     atom                  positions (alat units)
         1           Nb  tau(   1) = (   1.5225021  -2.6370512   4.9724614  )
         2           Ti  tau(   2) = (   0.0000015  -1.7580350   2.4862307  )
         3           Ti  tau(   3) = (   1.5225021  -2.6370512   9.9449228  )
         4           Nb  tau(   4) = (   0.0000015  -1.7580350   7.4586921  )
         5           Nb  tau(   5) = (   1.5225021  -2.6370512  14.9173841  )
         6           Nb  tau(   6) = (   0.0000015  -1.7580350  12.4311534  )

     number of k points=   120  Marzari-Vanderbilt smearing, width (Ry)=  0.0200

     Number of k-points >= 100: set verbosity='high' to print them.

     Initial potential from superposition of free atoms

     starting charge   73.98898, renormalised to   76.00000
     Starting wfcs are   72 randomized atomic wfcs

     Self-consistent Calculation

     iteration #  1     ecut=    40.00 Ry     beta= 0.60
     Davidson diagonalization with overlap
     ethr =  1.00E-02,  avg # of iterations =  3.6

     total energy              =    -611.92329550 Ry
     Harris-Foulkes estimate   =    -713.98383211 Ry
     estimated scf accuracy    <     125.25368487 Ry

[...]

     iteration # 26     ecut=    40.00 Ry     beta= 0.60
     Davidson diagonalization with overlap
     c_bands:  1 eigenvalues not converged
     c_bands:  1 eigenvalues not converged
     ethr =  4.05E-06,  avg # of iterations =  3.9

[...]

     End of self-consistent calculation

     Number of k-points >= 100: set verbosity='high' to print the bands.

     the Fermi energy is    14.6616 ev

!    total energy              =    -704.90618822 Ry
     Harris-Foulkes estimate   =    -704.90618822 Ry
     estimated scf accuracy    <          6.1E-11 Ry

     The total energy is the sum of the following terms:

     one-electron contribution =    -178.06264717 Ry
     hartree contribution      =     117.73948094 Ry
     xc contribution           =    -102.16498211 Ry
     ewald contribution        =    -542.41430307 Ry
     smearing contrib. (-TS)   =      -0.00373681 Ry

     convergence has been achieved in  36 iterations

     Forces acting on atoms (cartesian axes, Ry/au):

     atom    1 type  1   force =    -0.00000000    0.00000000   -0.01935052
     atom    2 type  2   force =    -0.00000000    0.00000000    0.00000000
     atom    3 type  2   force =    -0.00000000    0.00000000    0.00000000
     atom    4 type  1   force =     0.00000000   -0.00000000    0.01935291
     atom    5 type  1   force =     0.00000000    0.00000000    0.01935052
     atom    6 type  1   force =     0.00000000   -0.00000000   -0.01935291

     Total force =     0.038703     Total SCF correction =     0.000052

     Computing stress (Cartesian axis) and pressure

          total   stress  (Ry/bohr**3)                   (kbar)     P= -116.38
  -0.00089939  -0.00000000   0.00000000       -132.31     -0.00      0.00
  -0.00000000  -0.00089939  -0.00000000         -0.00   -132.31     -0.00
   0.00000000  -0.00000000  -0.00057464          0.00     -0.00    -84.53

     BFGS Geometry Optimization

     number of scf cycles    =   1
     number of bfgs steps    =   0

     enthalpy new            =    -704.9061882195 Ry

     new trust radius        =       0.1278547776 bohr
     new conv_thr            =            1.0E-10 Ry

     new unit-cell volume =    761.30415 a.u.^3 (   112.81363 Ang^3 )
     density =      6.87921 g/cm^3

CELL_PARAMETERS (alat=  1.88972599)
  -1.488268834  -2.577757421   0.000000000
   2.976537667  -0.000000000   0.000000000
   0.000000000  -0.000000000  14.703078069

ATOMIC_POSITIONS (angstrom)
Nb       1.488268834  -2.577757421   4.890933276
Ti       0.000001489  -1.718505806   2.450513011
Ti       1.488268834  -2.577757421   9.802052046
Nb       0.000001489  -1.718505806   7.361633029
Nb       1.488268834  -2.577757421  14.713170816
Nb       0.000001489  -1.718505806  12.242471063

     NEW-OLD atomic charge density approx. for the potential

     Check: negative/imaginary core charge=   -0.000001    0.000000
     extrapolated charge   71.42845, renormalised to   76.00000

[...]

     enthalpy old            =    -704.9061882195 Ry
     enthalpy new            =    -704.9357772081 Ry

     CASE: enthalpy_new < enthalpy_old

[...]

     Threshold (ethr) on eigenvalues was too large:
     Diagonalizing with lowered threshold

     Davidson diagonalization with overlap
     ethr =  6.52E-08,  avg # of iterations =  2.5

[...]

     Total force =     0.000322     Total SCF correction =     0.000040
     SCF correction compared to forces is large: reduce conv_thr to get better values

[...]

     small trust_radius: resetting bfgs history

[...]

     number of scf cycles    =  12
     number of bfgs steps    =  11

     enthalpy old            =    -704.9456959442 Ry
     enthalpy new            =    -704.9456959442 Ry

     CASE: enthalpy_new < enthalpy_old

     Message from routine bfgs:
     history already reset at previous step: stopping
     small trust_radius: resetting bfgs history

     new trust radius        =       0.0000016112 bohr
     new conv_thr            =            1.0E-12 Ry

     new unit-cell volume =    734.89428 a.u.^3 (   108.90009 Ang^3 )
     density =      7.12643 g/cm^3

[...]

ATOMIC_POSITIONS (angstrom)
Nb       1.449939314  -2.511368750   4.946947989
Ti       0.000001450  -1.674246670   2.492222428
Ti       1.449939314  -2.511368750   9.968889714
Nb       0.000001450  -1.674246670   7.514163226
Nb       1.449939314  -2.511368750  14.990831439
Nb       0.000001450  -1.674246670  12.423616202

     NEW-OLD atomic charge density approx. for the potential

     Check: negative/imaginary core charge=   -0.000001    0.000000
     extrapolated charge   76.00004, renormalised to   76.00000

[...]

     Threshold (ethr) on eigenvalues was too large:
     Diagonalizing with lowered threshold

     Davidson diagonalization with overlap
     ethr =  9.43E-14,  avg # of iterations =  3.4

[...]

     Total force =     0.000001     Total SCF correction =     0.000004
     SCF correction compared to forces is large: reduce conv_thr to get better values

[...]

     bfgs converged in  13 scf cycles and  12 bfgs steps
     (criteria: energy <  1.0E-10 Ry, force <  1.0E-05Ry/Bohr, cell <  1.0E-03kbar)

     End of BFGS Geometry Optimization

     Final enthalpy =    -704.9456959440 Ry
Begin final coordinates
     new unit-cell volume =    734.89428 a.u.^3 (   108.90009 Ang^3 )
     density =      7.12643 g/cm^3

CELL_PARAMETERS (alat=  1.88972599)
  -1.449939314  -2.511368750   0.000000000
   2.899878628   0.000000000  -0.000000000
   0.000000000  -0.000000000  14.953334571

ATOMIC_POSITIONS (angstrom)
Nb       1.449939314  -2.511368750   4.946947989
Ti       0.000001450  -1.674246670   2.492222428
Ti       1.449939314  -2.511368750   9.968889714
Nb       0.000001450  -1.674246670   7.514163226
Nb       1.449939314  -2.511368750  14.990831439
Nb       0.000001450  -1.674246670  12.423616202
End final coordinates

     A final scf calculation at the relaxed structure.
     The G-vectors are recalculated for the final unit cell
     Results may differ from those at the preceding step.

     bravais-lattice index     =            0
     lattice parameter (alat)  =       1.8897  a.u.
     unit-cell volume          =     734.8943 (a.u.)^3
     number of atoms/cell      =            6
     number of atomic types    =            2
     number of electrons       =        76.00
     number of Kohn-Sham states=           46
     kinetic-energy cutoff     =      40.0000  Ry
     charge density cutoff     =     400.0000  Ry
     convergence threshold     =      1.0E-12
     mixing beta               =       0.6000
     number of iterations used =            8  plain     mixing
     Exchange-correlation      = SLA PW PBE PBE ( 1  4  3  4 0 0)

     celldm(1)=   1.889726  celldm(2)=   0.000000  celldm(3)=   0.000000
     celldm(4)=   0.000000  celldm(5)=   0.000000  celldm(6)=   0.000000

     crystal axes: (cart. coord. in units of alat)
               a(1) = (  -1.449939  -2.511369   0.000000 )
               a(2) = (   2.899879   0.000000  -0.000000 )
               a(3) = (   0.000000  -0.000000  14.953335 )

     reciprocal axes: (cart. coord. in units 2 pi/alat)
               b(1) = (  0.000000 -0.398189 -0.000000 )
               b(2) = (  0.344842 -0.199095 -0.000000 )
               b(3) = (  0.000000  0.000000  0.066875 )

     PseudoPot. # 1 for Nb read from file:
     ./Nb.pbe-nsp-van.UPF
     MD5 check sum: 0a22fc7fb0ba19a08ca5db297a5d2854
     Pseudo is Ultrasoft + core correction, Zval = 13.0
     Generated by new atomic code, or converted to UPF format
     Using radial grid of  887 points,  6 beta functions with:
                l(1) =   0
                l(2) =   0
                l(3) =   1
                l(4) =   1
                l(5) =   2
                l(6) =   2
     Q(r) pseudized with  6 coefficients,  rinner =    1.000   1.000   1.000
                                                       1.000   1.000

     PseudoPot. # 2 for Ti read from file:
     ./Ti.pbe-sp-van_ak.UPF
     MD5 check sum: f98fea3e8887528921fefa5636a534ca
     Pseudo is Ultrasoft, Zval = 12.0
     Generated by new atomic code, or converted to UPF format
     Using radial grid of  851 points,  6 beta functions with:
                l(1) =   0
                l(2) =   0
                l(3) =   1
                l(4) =   1
                l(5) =   2
                l(6) =   2
     Q(r) pseudized with  8 coefficients,  rinner =    1.000   1.000   1.000
                                                       1.000   1.000

     atomic species   valence    mass     pseudopotential
        Nb            13.00    92.90638     Nb( 1.00)
        Ti            12.00    47.86700     Ti( 1.00)

     12 Sym. Ops. (no inversion) found ( 6 have fractional translation)
          (note: 12 additional sym.ops. were found but ignored
           their fractional translations are incommensurate with FFT grid)

   Cartesian axes

     site n.     atom                  positions (alat units)
         1           Nb  tau(   1) = (   1.4499394  -2.5113689   4.9469484  )
         2           Ti  tau(   2) = (   0.0000015  -1.6742468   2.4922226  )
         3           Ti  tau(   3) = (   1.4499394  -2.5113689   9.9688905  )
         4           Nb  tau(   4) = (   0.0000015  -1.6742468   7.5141638  )
         5           Nb  tau(   5) = (   1.4499394  -2.5113689  14.9908326  )
         6           Nb  tau(   6) = (   0.0000015  -1.6742468  12.4236171  )

     number of k points=   120  Marzari-Vanderbilt smearing, width (Ry)=  0.0200

     Number of k-points >= 100: set verbosity='high' to print them.

     Check: negative/imaginary core charge=   -0.000001    0.000000

     Initial potential from superposition of free atoms

     starting charge   73.98898, renormalised to   76.00000
     Starting wfcs are   72 randomized atomic wfcs

     Self-consistent Calculation

     iteration #  1     ecut=    40.00 Ry     beta= 0.60
     Davidson diagonalization with overlap
     c_bands:  1 eigenvalues not converged
     c_bands:  1 eigenvalues not converged
     c_bands:  1 eigenvalues not converged
     c_bands:  1 eigenvalues not converged
     c_bands:  1 eigenvalues not converged
     c_bands:  2 eigenvalues not converged
     c_bands:  1 eigenvalues not converged
     c_bands:  1 eigenvalues not converged
     c_bands:  2 eigenvalues not converged
     c_bands:  3 eigenvalues not converged
     c_bands:  4 eigenvalues not converged
     ethr =  1.00E-06,  avg # of iterations = 15.3

[...]

     total energy              =    -704.94333612 Ry
     Harris-Foulkes estimate   =    -704.94333612 Ry
     estimated scf accuracy    <          1.7E-12 Ry

     iteration # 38     ecut=    40.00 Ry     beta= 0.60
     Davidson diagonalization with overlap
     ethr =  1.00E-13,  avg # of iterations =  1.0

     End of self-consistent calculation

     Number of k-points >= 100: set verbosity='high' to print the bands.

     the Fermi energy is    16.3662 ev

!    total energy              =    -704.94333612 Ry
     Harris-Foulkes estimate   =    -704.94333612 Ry
     estimated scf accuracy    <          4.8E-13 Ry

     The total energy is the sum of the following terms:

     one-electron contribution =    -152.76212259 Ry
     hartree contribution      =     110.45243549 Ry
     xc contribution           =    -102.71046084 Ry
     ewald contribution        =    -559.92051502 Ry
     smearing contrib. (-TS)   =      -0.00267316 Ry

     convergence has been achieved in  38 iterations

     Forces acting on atoms (cartesian axes, Ry/au):

     atom    1 type  1   force =     0.00000000    0.00000000    0.00001992
     atom    2 type  2   force =    -0.00000000    0.00000000    0.00000000
     atom    3 type  2   force =    -0.00000000    0.00000000    0.00000000
     atom    4 type  1   force =    -0.00000000   -0.00000000   -0.00002020
     atom    5 type  1   force =     0.00000000   -0.00000000   -0.00001992
     atom    6 type  1   force =    -0.00000000    0.00000000    0.00002020

     Total force =     0.000040     Total SCF correction =     0.000003

     Computing stress (Cartesian axis) and pressure

          total   stress  (Ry/bohr**3)                   (kbar)     P=   -1.19
  -0.00001054   0.00000000   0.00000000         -1.55      0.00      0.00
   0.00000000  -0.00001054  -0.00000000          0.00     -1.55     -0.00
   0.00000000   0.00000000  -0.00000324          0.00      0.00     -0.48

     General routines

     Parallel routines

       0h

   This run was terminated on:  18:24:48  12Mar2020

   JOB DONE.