     Program PWSCF v.6.3MaX starts on 13Jan2020 at 23:52:42

     Waiting for input...
     Reading input from standard input

     Current dimensions of program PWSCF are:
     Max number of different atomic species (ntypx) = 10
     Max number of k-points (npk) =  40000
     Max angular momentum in pseudopotentials (lmaxx) =  3
     Message from routine iosys:
     minimal I/O required, wf_collect reset to FALSE

     Subspace diagonalization in iterative solution of the eigenvalue problem:
     a serial algorithm will be used

     bravais-lattice index     =            0
     lattice parameter (alat)  =       1.8897  a.u.
     unit-cell volume          =     440.0051 (a.u.)^3
     number of atoms/cell      =            3
     number of atomic types    =            2
     number of electrons       =        37.00
     number of Kohn-Sham states=           23
     kinetic-energy cutoff     =      50.0000  Ry
     charge density cutoff     =     500.0000  Ry
     convergence threshold     =      1.0E-10
     mixing beta               =       0.6000
     number of iterations used =            8  plain     mixing
     Exchange-correlation      = SLA PW PBE PBE ( 1  4  3  4 0 0)
     nstep                     =           50

     celldm(1)=   1.889726  celldm(2)=   0.000000  celldm(3)=   0.000000
     celldm(4)=   0.000000  celldm(5)=   0.000000  celldm(6)=   0.000000

     crystal axes: (cart. coord. in units of alat)
               a(1) = (   0.000000  -3.516063  -3.516063 )
               a(2) = (  -3.516063   3.516063   0.000000 )
               a(3) = (   1.758031   1.758031  -1.758031 )

     reciprocal axes: (cart. coord. in units 2 pi/alat)
               b(1) = ( -0.094803 -0.094803 -0.189606 )
               b(2) = ( -0.189606  0.094803 -0.094803 )
               b(3) = (  0.189606  0.189606 -0.189606 )

     PseudoPot. # 1 for Nb read from file:
     /home/u16/abhishekkt/fp/krishna/calculations/pseudopotentials/Nb.pbe-nsp-van.UPF
     MD5 check sum: c44c1a86bf31974e1e832c2ec821fd5f
     Pseudo is Ultrasoft + core correction, Zval = 13.0
     Generated by new atomic code, or converted to UPF format
     Using radial grid of  887 points,  6 beta functions with:
                l(1) =   0
                l(2) =   0
                l(3) =   1
                l(4) =   1
                l(5) =   2
                l(6) =   2
     Q(r) pseudized with  6 coefficients,  rinner =    1.000   1.000   1.000
                                                       1.000   1.000

     PseudoPot. # 2 for Ti read from file:
     /home/u16/abhishekkt/fp/krishna/calculations/pseudopotentials/Ti.pbe-sp-van_ak.UPF
     MD5 check sum: 84d3ec9e8983e94242673103c800fb48
     Pseudo is Ultrasoft, Zval = 12.0
     Generated by new atomic code, or converted to UPF format
     Using radial grid of  851 points,  6 beta functions with:
                l(1) =   0
                l(2) =   0
                l(3) =   1
                l(4) =   1
                l(5) =   2
                l(6) =   2
     Q(r) pseudized with  8 coefficients,  rinner =    1.000   1.000   1.000
                                                       1.000   1.000

     atomic species   valence    mass     pseudopotential
        Nb            13.00    92.90638     Nb( 1.00)
        Ti            12.00    47.86700     Ti( 1.00)

     12 Sym. Ops., with inversion, found ( 6 have fractional translation)

   Cartesian axes

     site n.     atom                  positions (alat units)
         1           Ti  tau(   1) = (  -1.7580316   1.7580316  -5.2740949  )
         2           Ti  tau(   2) = (   0.0000000   0.0000000  -3.5160633  )
         3           Nb  tau(   3) = (  -1.7580316   1.7580316  -1.7580316  )

     number of k points=   298  Marzari-Vanderbilt smearing, width (Ry)=  0.0200

     Number of k-points >= 100: set verbosity='high' to print them.

     Initial potential from superposition of free atoms

     starting charge   34.99718, renormalised to   37.00000
     Starting wfcs are   33 randomized atomic wfcs

     Self-consistent Calculation

     iteration #  1     ecut=    50.00 Ry     beta= 0.60
     Davidson diagonalization with overlap
     ethr =  1.00E-02,  avg # of iterations =  3.5

     total energy              =    -348.51278519 Ry
     Harris-Foulkes estimate   =    -352.21100171 Ry
     estimated scf accuracy    <       4.80339561 Ry

[...]

     iteration #  9     ecut=    50.00 Ry     beta= 0.60
     Davidson diagonalization with overlap
     c_bands:  1 eigenvalues not converged
     ethr =  9.15E-06,  avg # of iterations =  8.1

[...]

     End of self-consistent calculation

     Number of k-points >= 100: set verbosity='high' to print the bands.

     the Fermi energy is    11.4274 ev

!    total energy              =    -351.15988472 Ry
     Harris-Foulkes estimate   =    -351.15988472 Ry
     estimated scf accuracy    <          9.3E-11 Ry

     The total energy is the sum of the following terms:

     one-electron contribution =    -126.32595181 Ry
     hartree contribution      =      72.27684595 Ry
     xc contribution           =     -46.99847175 Ry
     ewald contribution        =    -250.11188705 Ry
     smearing contrib. (-TS)   =      -0.00042006 Ry

     convergence has been achieved in  20 iterations

     Forces acting on atoms (cartesian axes, Ry/au):

     atom    1 type  2   force =     0.00436076    0.00436076   -0.00436076
     atom    2 type  2   force =    -0.00436076   -0.00436076    0.00436076
     atom    3 type  1   force =    -0.00000000    0.00000000   -0.00000000

     Total force =     0.010682     Total SCF correction =     0.000002

     Computing stress (Cartesian axis) and pressure

          total   stress  (Ry/bohr**3)                   (kbar)     P= -189.55
  -0.00128851  -0.00001751   0.00001751       -189.55     -2.58      2.58
  -0.00001751  -0.00128851   0.00001751         -2.58   -189.55      2.58
   0.00001751   0.00001751  -0.00128851          2.58      2.58   -189.55

     BFGS Geometry Optimization

     number of scf cycles    =   1
     number of bfgs steps    =   0

     enthalpy new            =    -351.1598847189 Ry

     new trust radius        =       0.1351657633 bohr
     new conv_thr            =            1.0E-10 Ry

     new unit-cell volume =    398.83857 a.u.^3 (    59.10178 Ang^3 )
     density =      5.30009 g/cm^3

CELL_PARAMETERS (alat=  1.88972599)
  -0.000000000  -3.404340165  -3.404340165
  -3.404340165   3.404340165  -0.000000000
   1.699861301   1.699861301  -1.699861301

ATOMIC_POSITIONS (angstrom)
Ti      -1.702247602   1.702092563  -5.106432728
Ti      -0.003770449  -0.003770449  -3.400569715
Nb      -1.702939676   1.701400489  -1.701400489

     NEW-OLD atomic charge density approx. for the potential
     extrapolated charge   33.38773, renormalised to   37.00000

[...]

     enthalpy old            =    -351.1598847189 Ry
     enthalpy new            =    -351.2050523322 Ry

     CASE: enthalpy_new < enthalpy_old

[...]

     Threshold (ethr) on eigenvalues was too large:
     Diagonalizing with lowered threshold

     Davidson diagonalization with overlap
     ethr =  1.95E-08,  avg # of iterations =  3.8

[...]

     Total force =     0.000000     Total SCF correction =     0.000000
     SCF correction compared to forces is large: reduce conv_thr to get better values

[...]

     small trust_radius: resetting bfgs history

[...]

     number of scf cycles    =  19
     number of bfgs steps    =  18

     enthalpy old            =    -351.2287106297 Ry
     enthalpy new            =    -351.2287106297 Ry

     CASE: enthalpy_new < enthalpy_old

     Message from routine bfgs:
     history already reset at previous step: stopping
     small trust_radius: resetting bfgs history

     new trust radius        =       0.0000057943 bohr
     new conv_thr            =            1.0E-12 Ry

     new unit-cell volume =    352.56590 a.u.^3 (    52.24488 Ang^3 )
     density =      5.99570 g/cm^3

[...]

ATOMIC_POSITIONS (angstrom)
Ti      -1.573363867   1.691710500  -4.956784867
Ti      -0.057460508  -0.057460508  -3.207613859
Nb      -1.632194622   1.632879745  -1.632879745

     NEW-OLD atomic charge density approx. for the potential
     extrapolated charge   36.99985, renormalised to   37.00000

[...]

     Threshold (ethr) on eigenvalues was too large:
     Diagonalizing with lowered threshold

     Davidson diagonalization with overlap
     ethr =  1.01E-11,  avg # of iterations =  1.4

[...]

     Total force =     0.000000     Total SCF correction =     0.000000
     SCF correction compared to forces is large: reduce conv_thr to get better values

[...]

     bfgs converged in  20 scf cycles and  19 bfgs steps
     (criteria: energy <  1.0E-10 Ry, force <  1.0E-05Ry/Bohr, cell <  1.0E-03kbar)

     End of BFGS Geometry Optimization

     Final enthalpy =    -351.2287106298 Ry
Begin final coordinates
     new unit-cell volume =    352.56590 a.u.^3 (    52.24488 Ang^3 )
     density =      5.99570 g/cm^3

CELL_PARAMETERS (alat=  1.88972599)
  -0.000000000  -3.265074367  -3.265074367
  -3.265074367   3.265074367  -0.000000000
   1.633564869   1.633564869  -1.633564869

ATOMIC_POSITIONS (angstrom)
Ti      -1.573363867   1.691710500  -4.956784867
Ti      -0.057460508  -0.057460508  -3.207613859
Nb      -1.632194622   1.632879745  -1.632879745
End final coordinates

     A final scf calculation at the relaxed structure.
     The G-vectors are recalculated for the final unit cell
     Results may differ from those at the preceding step.

     bravais-lattice index     =            0
     lattice parameter (alat)  =       1.8897  a.u.
     unit-cell volume          =     352.5659 (a.u.)^3
     number of atoms/cell      =            3
     number of atomic types    =            2
     number of electrons       =        37.00
     number of Kohn-Sham states=           23
     kinetic-energy cutoff     =      50.0000  Ry
     charge density cutoff     =     500.0000  Ry
     convergence threshold     =      1.0E-12
     mixing beta               =       0.6000
     number of iterations used =            8  plain     mixing
     Exchange-correlation      = SLA PW PBE PBE ( 1  4  3  4 0 0)

     celldm(1)=   1.889726  celldm(2)=   0.000000  celldm(3)=   0.000000
     celldm(4)=   0.000000  celldm(5)=   0.000000  celldm(6)=   0.000000

     crystal axes: (cart. coord. in units of alat)
               a(1) = (  -0.000000  -3.265074  -3.265074 )
               a(2) = (  -3.265074   3.265074  -0.000000 )
               a(3) = (   1.633565   1.633565  -1.633565 )

     reciprocal axes: (cart. coord. in units 2 pi/alat)
               b(1) = ( -0.102091 -0.102091 -0.204181 )
               b(2) = ( -0.204181  0.102091 -0.102091 )
               b(3) = (  0.204053  0.204053 -0.204053 )

     PseudoPot. # 1 for Nb read from file:
     /home/u16/abhishekkt/fp/krishna/calculations/pseudopotentials/Nb.pbe-nsp-van.UPF
     MD5 check sum: c44c1a86bf31974e1e832c2ec821fd5f
     Pseudo is Ultrasoft + core correction, Zval = 13.0
     Generated by new atomic code, or converted to UPF format
     Using radial grid of  887 points,  6 beta functions with:
                l(1) =   0
                l(2) =   0
                l(3) =   1
                l(4) =   1
                l(5) =   2
                l(6) =   2
     Q(r) pseudized with  6 coefficients,  rinner =    1.000   1.000   1.000
                                                       1.000   1.000

     PseudoPot. # 2 for Ti read from file:
     /home/u16/abhishekkt/fp/krishna/calculations/pseudopotentials/Ti.pbe-sp-van_ak.UPF
     MD5 check sum: 84d3ec9e8983e94242673103c800fb48
     Pseudo is Ultrasoft, Zval = 12.0
     Generated by new atomic code, or converted to UPF format
     Using radial grid of  851 points,  6 beta functions with:
                l(1) =   0
                l(2) =   0
                l(3) =   1
                l(4) =   1
                l(5) =   2
                l(6) =   2
     Q(r) pseudized with  8 coefficients,  rinner =    1.000   1.000   1.000
                                                       1.000   1.000

     atomic species   valence    mass     pseudopotential
        Nb            13.00    92.90638     Nb( 1.00)
        Ti            12.00    47.86700     Ti( 1.00)

     12 Sym. Ops., with inversion, found ( 6 have fractional translation)

   Cartesian axes

     site n.     atom                  positions (alat units)
         1           Ti  tau(   1) = (  -1.5733640   1.6917106  -4.9567852  )
         2           Ti  tau(   2) = (  -0.0574605  -0.0574605  -3.2076141  )
         3           Nb  tau(   3) = (  -1.6321947   1.6328799  -1.6328799  )

     number of k points=   298  Marzari-Vanderbilt smearing, width (Ry)=  0.0200

     Number of k-points >= 100: set verbosity='high' to print them.

     Initial potential from superposition of free atoms

     starting charge   34.99718, renormalised to   37.00000
     Starting wfcs are   33 randomized atomic wfcs

     Self-consistent Calculation

     iteration #  1     ecut=    50.00 Ry     beta= 0.60
     Davidson diagonalization with overlap
     c_bands:  1 eigenvalues not converged
     c_bands:  1 eigenvalues not converged
     c_bands:  1 eigenvalues not converged
     c_bands:  1 eigenvalues not converged
     c_bands:  1 eigenvalues not converged
     c_bands:  1 eigenvalues not converged
     c_bands:  1 eigenvalues not converged
     c_bands:  1 eigenvalues not converged
     c_bands:  1 eigenvalues not converged
     c_bands:  1 eigenvalues not converged
     c_bands:  1 eigenvalues not converged
     c_bands:  1 eigenvalues not converged
     c_bands:  1 eigenvalues not converged
     c_bands:  1 eigenvalues not converged
     c_bands:  1 eigenvalues not converged
     c_bands:  1 eigenvalues not converged
     c_bands:  1 eigenvalues not converged
     c_bands:  1 eigenvalues not converged
     c_bands:  1 eigenvalues not converged
     c_bands:  1 eigenvalues not converged
     c_bands:  1 eigenvalues not converged
     c_bands:  1 eigenvalues not converged
     c_bands:  1 eigenvalues not converged
     c_bands:  1 eigenvalues not converged
     c_bands:  1 eigenvalues not converged
     c_bands:  1 eigenvalues not converged
     c_bands:  1 eigenvalues not converged
     c_bands:  1 eigenvalues not converged
     c_bands:  1 eigenvalues not converged
     c_bands:  1 eigenvalues not converged
     c_bands:  1 eigenvalues not converged
     c_bands:  1 eigenvalues not converged
     c_bands:  1 eigenvalues not converged
     c_bands:  1 eigenvalues not converged
     c_bands:  1 eigenvalues not converged
     c_bands:  1 eigenvalues not converged
     c_bands:  1 eigenvalues not converged
     c_bands:  1 eigenvalues not converged
     c_bands:  1 eigenvalues not converged
     c_bands:  1 eigenvalues not converged
     c_bands:  1 eigenvalues not converged
     c_bands:  1 eigenvalues not converged
     c_bands:  1 eigenvalues not converged
     c_bands:  1 eigenvalues not converged
     c_bands:  1 eigenvalues not converged
     c_bands:  1 eigenvalues not converged
     c_bands:  1 eigenvalues not converged
     c_bands:  1 eigenvalues not converged
     c_bands:  1 eigenvalues not converged
     c_bands:  1 eigenvalues not converged
     c_bands:  1 eigenvalues not converged
     c_bands:  1 eigenvalues not converged
     c_bands:  1 eigenvalues not converged
     c_bands:  1 eigenvalues not converged
     c_bands:  1 eigenvalues not converged
     c_bands:  1 eigenvalues not converged
     c_bands:  1 eigenvalues not converged
     c_bands:  1 eigenvalues not converged
     c_bands:  1 eigenvalues not converged
     c_bands:  1 eigenvalues not converged
[...]
     c_bands:  1 eigenvalues not converged
     c_bands:  1 eigenvalues not converged
     c_bands:  1 eigenvalues not converged
     c_bands:  1 eigenvalues not converged
     c_bands:  1 eigenvalues not converged
     c_bands:  1 eigenvalues not converged
     c_bands:  1 eigenvalues not converged
     c_bands:  1 eigenvalues not converged
     c_bands:  1 eigenvalues not converged
     c_bands:  1 eigenvalues not converged
     c_bands:  1 eigenvalues not converged
     c_bands:  1 eigenvalues not converged
     c_bands:  1 eigenvalues not converged
     c_bands:  1 eigenvalues not converged
     c_bands:  1 eigenvalues not converged
     ethr =  1.00E-06,  avg # of iterations = 14.8

[...]

     total energy              =    -351.22838438 Ry
     Harris-Foulkes estimate   =    -351.22838438 Ry
     estimated scf accuracy    <          4.6E-11 Ry

     iteration # 21     ecut=    50.00 Ry     beta= 0.60
     Davidson diagonalization with overlap
     ethr =  1.25E-13,  avg # of iterations =  2.6

     End of self-consistent calculation

     Number of k-points >= 100: set verbosity='high' to print the bands.

     the Fermi energy is    14.9085 ev

!    total energy              =    -351.22838438 Ry
     Harris-Foulkes estimate   =    -351.22838438 Ry
     estimated scf accuracy    <          2.6E-13 Ry

     The total energy is the sum of the following terms:

     one-electron contribution =     -98.14070859 Ry
     hartree contribution      =      63.62093608 Ry
     xc contribution           =     -47.53054462 Ry
     ewald contribution        =    -269.17805548 Ry
     smearing contrib. (-TS)   =      -0.00001178 Ry

     convergence has been achieved in  21 iterations

     Forces acting on atoms (cartesian axes, Ry/au):

     atom    1 type  2   force =     0.00001525    0.00001525   -0.00001525
     atom    2 type  2   force =    -0.00001525   -0.00001525    0.00001525
     atom    3 type  1   force =     0.00000000    0.00000000    0.00000000

     Total force =     0.000037     Total SCF correction =     0.000000

     Computing stress (Cartesian axis) and pressure

          total   stress  (Ry/bohr**3)                   (kbar)     P=   -0.45
  -0.00000304  -0.00000007   0.00000007         -0.45     -0.01      0.01
  -0.00000007  -0.00000304   0.00000007         -0.01     -0.45      0.01
   0.00000007   0.00000007  -0.00000304          0.01      0.01     -0.45

     General routines

     Parallel routines

      56h

   This run was terminated on:   3:48:44  14Jan2020

   JOB DONE.