     Program PWSCF v.6.3MaX starts on 23Jan2020 at 15:37:35

     R & G space division:  proc/nbgrp/npool/nimage =       4
     Waiting for input...
     Reading input from standard input

     Current dimensions of program PWSCF are:
     Max number of different atomic species (ntypx) = 10
     Max number of k-points (npk) =  40000
     Max angular momentum in pseudopotentials (lmaxx) =  3
     Message from routine iosys:
     minimal I/O required, wf_collect reset to FALSE

     Subspace diagonalization in iterative solution of the eigenvalue problem:
     a serial algorithm will be used

     bravais-lattice index     =            0
     lattice parameter (alat)  =       1.8897  a.u.
     unit-cell volume          =     733.3418 (a.u.)^3
     number of atoms/cell      =            5
     number of atomic types    =            2
     number of electrons       =        63.00
     number of Kohn-Sham states=           38
     kinetic-energy cutoff     =      50.0000  Ry
     charge density cutoff     =     500.0000  Ry
     convergence threshold     =      1.0E-10
     mixing beta               =       0.6000
     number of iterations used =            8  plain     mixing
     Exchange-correlation      = SLA PW PBE PBE ( 1  4  3  4 0 0)
     nstep                     =           50

     celldm(1)=   1.889726  celldm(2)=   0.000000  celldm(3)=   0.000000
     celldm(4)=   0.000000  celldm(5)=   0.000000  celldm(6)=   0.000000

     crystal axes: (cart. coord. in units of alat)
               a(1) = (   5.274095   1.758031   5.274095 )
               a(2) = (   1.758031   5.274095   5.274095 )
               a(3) = (  -1.758031  -1.758031   1.758031 )

     reciprocal axes: (cart. coord. in units 2 pi/alat)
               b(1) = (  0.170645 -0.113764  0.056882 )
               b(2) = ( -0.113764  0.170645  0.056882 )
               b(3) = ( -0.170645 -0.170645  0.227527 )

     PseudoPot. # 1 for Nb read from file:
     ./Nb.pbe-nsp-van.UPF
     MD5 check sum: 0a22fc7fb0ba19a08ca5db297a5d2854
     Pseudo is Ultrasoft + core correction, Zval = 13.0
     Generated by new atomic code, or converted to UPF format
     Using radial grid of  887 points,  6 beta functions with:
                l(1) =   0
                l(2) =   0
                l(3) =   1
                l(4) =   1
                l(5) =   2
                l(6) =   2
     Q(r) pseudized with  6 coefficients,  rinner =    1.000   1.000   1.000
                                                       1.000   1.000

     PseudoPot. # 2 for Ti read from file:
     ./Ti.pbe-sp-van_ak.UPF
     MD5 check sum: f98fea3e8887528921fefa5636a534ca
     Pseudo is Ultrasoft, Zval = 12.0
     Generated by new atomic code, or converted to UPF format
     Using radial grid of  851 points,  6 beta functions with:
                l(1) =   0
                l(2) =   0
                l(3) =   1
                l(4) =   1
                l(5) =   2
                l(6) =   2
     Q(r) pseudized with  8 coefficients,  rinner =    1.000   1.000   1.000
                                                       1.000   1.000

     atomic species   valence    mass     pseudopotential
        Nb            13.00    92.90638     Nb( 1.00)
        Ti            12.00    47.86700     Ti( 1.00)

      2 Sym. Ops. (no inversion) found

   Cartesian axes

     site n.     atom                  positions (alat units)
         1           Ti  tau(   1) = (   0.0000000   0.0000000   3.5160633  )
         2           Ti  tau(   2) = (   1.7580316   1.7580316   5.2740949  )
         3           Nb  tau(   3) = (   3.5160633   3.5160633   7.0321265  )
         4           Nb  tau(   4) = (   5.2740949   5.2740949   8.7901582  )
         5           Nb  tau(   5) = (   5.2740949   5.2740949  12.3062214  )

     number of k points=   500  Marzari-Vanderbilt smearing, width (Ry)=  0.0200

     Number of k-points >= 100: set verbosity='high' to print them.

     Initial potential from superposition of free atoms

     starting charge   60.99171, renormalised to   63.00000
     Starting wfcs are   59 randomized atomic wfcs

     Self-consistent Calculation

     iteration #  1     ecut=    50.00 Ry     beta= 0.60
     Davidson diagonalization with overlap
     ethr =  1.00E-02,  avg # of iterations =  3.0

     total energy              =    -560.45320399 Ry
     Harris-Foulkes estimate   =    -590.01708684 Ry
     estimated scf accuracy    <      36.97934935 Ry

[...]

     End of self-consistent calculation

     Number of k-points >= 100: set verbosity='high' to print the bands.

     the Fermi energy is    12.6135 ev

!    total energy              =    -586.98313180 Ry
     Harris-Foulkes estimate   =    -586.98313180 Ry
     estimated scf accuracy    <          5.2E-11 Ry

     The total energy is the sum of the following terms:

     one-electron contribution =    -175.26703704 Ry
     hartree contribution      =     106.82231086 Ry
     xc contribution           =     -83.49243377 Ry
     ewald contribution        =    -435.04617065 Ry
     smearing contrib. (-TS)   =       0.00019880 Ry

     convergence has been achieved in  28 iterations

     Forces acting on atoms (cartesian axes, Ry/au):

     atom    1 type  2   force =    -0.00484980   -0.00484980   -0.00388740
     atom    2 type  2   force =     0.00484492    0.00484492    0.00387745
     atom    3 type  1   force =     0.01024263    0.01024263   -0.00797747
     atom    4 type  1   force =     0.00000143    0.00000143    0.00000278
     atom    5 type  1   force =    -0.01023917   -0.01023917    0.00798464

     Total force =     0.025904     Total SCF correction =     0.000028

     Computing stress (Cartesian axis) and pressure

          total   stress  (Ry/bohr**3)                   (kbar)     P= -204.84
  -0.00139667  -0.00003545   0.00000770       -205.46     -5.21      1.13
  -0.00003545  -0.00139667   0.00000770         -5.21   -205.46      1.13
   0.00000770   0.00000770  -0.00138407          1.13      1.13   -203.60

     BFGS Geometry Optimization

     number of scf cycles    =   1
     number of bfgs steps    =   0

     enthalpy new            =    -586.9831318001 Ry

     new trust radius        =       0.1891744294 bohr
     new conv_thr            =            1.0E-10 Ry

     new unit-cell volume =    659.38979 a.u.^3 (    97.71148 Ang^3 )
     density =      6.36357 g/cm^3

CELL_PARAMETERS (alat=  1.88972599)
   5.089398067   1.692988457   5.092955556
   1.692988457   5.089398067   5.092955556
  -1.694750564  -1.694750564   1.696523762

ATOMIC_POSITIONS (angstrom)
Ti      -0.001798061  -0.001798061   3.392414302
Ti       1.698576696   1.698576696   5.094260549
Nb       3.396756983   3.396756983   6.786082835
Nb       5.086959834   5.086959834   8.488035064
Nb       5.082412430   5.082412430  11.886511874

     NEW-OLD atomic charge density approx. for the potential
     extrapolated charge   56.15964, renormalised to   63.00000

[...]

     iteration #  1     ecut=    50.00 Ry     beta= 0.60
     Davidson diagonalization with overlap
     c_bands:  1 eigenvalues not converged
     c_bands:  1 eigenvalues not converged
     c_bands:  1 eigenvalues not converged
     c_bands:  1 eigenvalues not converged
     c_bands:  1 eigenvalues not converged
     c_bands:  1 eigenvalues not converged
     c_bands:  1 eigenvalues not converged
     c_bands:  1 eigenvalues not converged
     c_bands:  1 eigenvalues not converged
     c_bands:  1 eigenvalues not converged
     c_bands:  1 eigenvalues not converged
     c_bands:  1 eigenvalues not converged
     c_bands:  1 eigenvalues not converged
     c_bands:  1 eigenvalues not converged
     c_bands:  1 eigenvalues not converged
     c_bands:  1 eigenvalues not converged
     c_bands:  1 eigenvalues not converged
     c_bands:  1 eigenvalues not converged
     c_bands:  1 eigenvalues not converged
     c_bands:  2 eigenvalues not converged
     c_bands:  1 eigenvalues not converged
     c_bands:  1 eigenvalues not converged
     c_bands:  1 eigenvalues not converged
     c_bands:  1 eigenvalues not converged
     c_bands:  1 eigenvalues not converged
     c_bands:  1 eigenvalues not converged
     c_bands:  1 eigenvalues not converged
     c_bands:  1 eigenvalues not converged
     c_bands:  1 eigenvalues not converged
     c_bands:  1 eigenvalues not converged
     c_bands:  1 eigenvalues not converged
     c_bands:  1 eigenvalues not converged
     c_bands:  1 eigenvalues not converged
     c_bands:  1 eigenvalues not converged
     c_bands:  1 eigenvalues not converged
     c_bands:  1 eigenvalues not converged
     c_bands:  1 eigenvalues not converged
     ethr =  1.00E-06,  avg # of iterations = 16.6

[...]

     enthalpy old            =    -586.9831318001 Ry
     enthalpy new            =    -587.0678429693 Ry

     CASE: enthalpy_new < enthalpy_old

[...]

     Threshold (ethr) on eigenvalues was too large:
     Diagonalizing with lowered threshold

     Davidson diagonalization with overlap
     ethr =  8.86E-08,  avg # of iterations =  1.4

[...]

     Total force =     0.000021     Total SCF correction =     0.000003
     SCF correction compared to forces is large: reduce conv_thr to get better values

[...]

     small trust_radius: resetting bfgs history

[...]

     number of scf cycles    =  25
     number of bfgs steps    =  24

     enthalpy old            =    -587.0992470910 Ry
     enthalpy new            =    -587.0992470925 Ry

     CASE: enthalpy_new < enthalpy_old

     Message from routine bfgs:
     history already reset at previous step: stopping
     small trust_radius: resetting bfgs history

     new trust radius        =       0.0000161234 bohr
     new conv_thr            =            1.1E-12 Ry

     new unit-cell volume =    597.02129 a.u.^3 (    88.46943 Ang^3 )
     density =      7.02835 g/cm^3

[...]

ATOMIC_POSITIONS (angstrom)
Ti      -0.039513309  -0.039513309   3.313864295
Ti       1.657488810   1.657488810   4.892983206
Nb       3.321470091   3.321470091   6.515700082
Nb       4.892280457   4.892280457   8.191386443
Nb       4.822104042   4.822104042  11.517721363

     NEW-OLD atomic charge density approx. for the potential
     extrapolated charge   62.99972, renormalised to   63.00000

[...]

     Threshold (ethr) on eigenvalues was too large:
     Diagonalizing with lowered threshold

     Davidson diagonalization with overlap
     ethr =  1.12E-11,  avg # of iterations =  1.9

[...]

     Total force =     0.000016     Total SCF correction =     0.000003
     SCF correction compared to forces is large: reduce conv_thr to get better values

[...]

     bfgs converged in  26 scf cycles and  25 bfgs steps
     (criteria: energy <  1.0E-10 Ry, force <  1.0E-05Ry/Bohr, cell <  1.0E-03kbar)

     End of BFGS Geometry Optimization

     Final enthalpy =    -587.0992470931 Ry
Begin final coordinates
     new unit-cell volume =    597.02129 a.u.^3 (    88.46943 Ang^3 )
     density =      7.02835 g/cm^3

CELL_PARAMETERS (alat=  1.88972599)
   4.907411601   1.618183531   4.913284857
   1.618183531   4.907411601   4.913284857
  -1.640985102  -1.640985102   1.650648749

ATOMIC_POSITIONS (angstrom)
Ti      -0.039513309  -0.039513309   3.313864295
Ti       1.657488810   1.657488810   4.892983206
Nb       3.321470091   3.321470091   6.515700082
Nb       4.892280457   4.892280457   8.191386443
Nb       4.822104042   4.822104042  11.517721363
End final coordinates

     A final scf calculation at the relaxed structure.
     The G-vectors are recalculated for the final unit cell
     Results may differ from those at the preceding step.

     bravais-lattice index     =            0
     lattice parameter (alat)  =       1.8897  a.u.
     unit-cell volume          =     597.0213 (a.u.)^3
     number of atoms/cell      =            5
     number of atomic types    =            2
     number of electrons       =        63.00
     number of Kohn-Sham states=           38
     kinetic-energy cutoff     =      50.0000  Ry
     charge density cutoff     =     500.0000  Ry
     convergence threshold     =      1.1E-12
     mixing beta               =       0.6000
     number of iterations used =            8  plain     mixing
     Exchange-correlation      = SLA PW PBE PBE ( 1  4  3  4 0 0)

     celldm(1)=   1.889726  celldm(2)=   0.000000  celldm(3)=   0.000000
     celldm(4)=   0.000000  celldm(5)=   0.000000  celldm(6)=   0.000000

     crystal axes: (cart. coord. in units of alat)
               a(1) = (   4.907412   1.618184   4.913285 )
               a(2) = (   1.618184   4.907412   4.913285 )
               a(3) = (  -1.640985  -1.640985   1.650649 )

     reciprocal axes: (cart. coord. in units 2 pi/alat)
               b(1) = (  0.182696 -0.121326  0.061011 )
               b(2) = ( -0.121326  0.182696  0.061011 )
               b(3) = ( -0.182672 -0.182672  0.242617 )

     PseudoPot. # 1 for Nb read from file:
     ./Nb.pbe-nsp-van.UPF
     MD5 check sum: 0a22fc7fb0ba19a08ca5db297a5d2854
     Pseudo is Ultrasoft + core correction, Zval = 13.0
     Generated by new atomic code, or converted to UPF format
     Using radial grid of  887 points,  6 beta functions with:
                l(1) =   0
                l(2) =   0
                l(3) =   1
                l(4) =   1
                l(5) =   2
                l(6) =   2
     Q(r) pseudized with  6 coefficients,  rinner =    1.000   1.000   1.000
                                                       1.000   1.000

     PseudoPot. # 2 for Ti read from file:
     ./Ti.pbe-sp-van_ak.UPF
     MD5 check sum: f98fea3e8887528921fefa5636a534ca
     Pseudo is Ultrasoft, Zval = 12.0
     Generated by new atomic code, or converted to UPF format
     Using radial grid of  851 points,  6 beta functions with:
                l(1) =   0
                l(2) =   0
                l(3) =   1
                l(4) =   1
                l(5) =   2
                l(6) =   2
     Q(r) pseudized with  8 coefficients,  rinner =    1.000   1.000   1.000
                                                       1.000   1.000

     atomic species   valence    mass     pseudopotential
        Nb            13.00    92.90638     Nb( 1.00)
        Ti            12.00    47.86700     Ti( 1.00)

      2 Sym. Ops. (no inversion) found

   Cartesian axes

     site n.     atom                  positions (alat units)
         1           Ti  tau(   1) = (  -0.0395133  -0.0395133   3.3138645  )
         2           Ti  tau(   2) = (   1.6574889   1.6574889   4.8929836  )
         3           Nb  tau(   3) = (   3.3214703   3.3214703   6.5157006  )
         4           Nb  tau(   4) = (   4.8922808   4.8922808   8.1913871  )
         5           Nb  tau(   5) = (   4.8221044   4.8221044  11.5177222  )

     number of k points=   500  Marzari-Vanderbilt smearing, width (Ry)=  0.0200

     Number of k-points >= 100: set verbosity='high' to print them.

     Initial potential from superposition of free atoms

     starting charge   60.99171, renormalised to   63.00000
     Starting wfcs are   59 randomized atomic wfcs

     Self-consistent Calculation

     iteration #  1     ecut=    50.00 Ry     beta= 0.60
     Davidson diagonalization with overlap
     c_bands:  1 eigenvalues not converged
     c_bands:  1 eigenvalues not converged
     c_bands:  1 eigenvalues not converged
     c_bands:  1 eigenvalues not converged
     c_bands:  3 eigenvalues not converged
     c_bands:  1 eigenvalues not converged
     c_bands:  1 eigenvalues not converged
     c_bands:  1 eigenvalues not converged
     c_bands:  1 eigenvalues not converged
     c_bands:  1 eigenvalues not converged
     c_bands:  1 eigenvalues not converged
     c_bands:  1 eigenvalues not converged
     c_bands:  1 eigenvalues not converged
     c_bands:  1 eigenvalues not converged
     c_bands:  1 eigenvalues not converged
     c_bands:  2 eigenvalues not converged
     c_bands:  2 eigenvalues not converged
     c_bands:  1 eigenvalues not converged
     c_bands:  1 eigenvalues not converged
     c_bands:  1 eigenvalues not converged
     c_bands:  1 eigenvalues not converged
     c_bands:  1 eigenvalues not converged
     c_bands:  1 eigenvalues not converged
     c_bands:  1 eigenvalues not converged
     c_bands:  1 eigenvalues not converged
     c_bands:  1 eigenvalues not converged
     c_bands:  1 eigenvalues not converged
     c_bands:  1 eigenvalues not converged
     c_bands:  2 eigenvalues not converged
     c_bands:  1 eigenvalues not converged
     c_bands:  2 eigenvalues not converged
     c_bands:  1 eigenvalues not converged
     c_bands:  1 eigenvalues not converged
     c_bands:  1 eigenvalues not converged
     c_bands:  1 eigenvalues not converged
     c_bands:  1 eigenvalues not converged
     ethr =  1.00E-06,  avg # of iterations = 13.1

[...]

     total energy              =    -587.09866353 Ry
     Harris-Foulkes estimate   =    -587.09866353 Ry
     estimated scf accuracy    <          3.4E-12 Ry

     iteration # 27     ecut=    50.00 Ry     beta= 0.60
     Davidson diagonalization with overlap
     ethr =  1.00E-13,  avg # of iterations =  1.0

     End of self-consistent calculation

     Number of k-points >= 100: set verbosity='high' to print the bands.

     the Fermi energy is    16.1421 ev

!    total energy              =    -587.09866353 Ry
     Harris-Foulkes estimate   =    -587.09866353 Ry
     estimated scf accuracy    <          4.1E-13 Ry

     The total energy is the sum of the following terms:

     one-electron contribution =    -130.48899870 Ry
     hartree contribution      =      93.58821466 Ry
     xc contribution           =     -84.40072458 Ry
     ewald contribution        =    -465.79710614 Ry
     smearing contrib. (-TS)   =      -0.00004877 Ry

     convergence has been achieved in  27 iterations

     Forces acting on atoms (cartesian axes, Ry/au):

     atom    1 type  2   force =    -0.00000003   -0.00000003   -0.00000340
     atom    2 type  2   force =     0.00000165    0.00000165    0.00000576
     atom    3 type  1   force =     0.00000311    0.00000311   -0.00001125
     atom    4 type  1   force =    -0.00000051   -0.00000051   -0.00000082
     atom    5 type  1   force =    -0.00000422   -0.00000422    0.00000970

     Total force =     0.000018     Total SCF correction =     0.000001

     Computing stress (Cartesian axis) and pressure

          total   stress  (Ry/bohr**3)                   (kbar)     P=   -1.06
  -0.00000720  -0.00000013   0.00000015         -1.06     -0.02      0.02
  -0.00000013  -0.00000720   0.00000015         -0.02     -1.06      0.02
   0.00000015   0.00000015  -0.00000728          0.02      0.02     -1.07

     General routines

     Parallel routines

      13h

   This run was terminated on:   0:50:59  24Jan2020

   JOB DONE.