     Program PWSCF v.6.3MaX starts on 30Jan2020 at 12:41:42

     R & G space division:  proc/nbgrp/npool/nimage =       4
     Waiting for input...
     Reading input from standard input

     Current dimensions of program PWSCF are:
     Max number of different atomic species (ntypx) = 10
     Max number of k-points (npk) =  40000
     Max angular momentum in pseudopotentials (lmaxx) =  3
     Message from routine iosys:
     minimal I/O required, wf_collect reset to FALSE

     Subspace diagonalization in iterative solution of the eigenvalue problem:
     a serial algorithm will be used

     bravais-lattice index     =            0
     lattice parameter (alat)  =       1.8897  a.u.
     unit-cell volume          =     808.3427 (a.u.)^3
     number of atoms/cell      =            6
     number of atomic types    =            2
     number of electrons       =        73.00
     number of Kohn-Sham states=           44
     kinetic-energy cutoff     =      40.0000  Ry
     charge density cutoff     =     400.0000  Ry
     convergence threshold     =      1.0E-10
     mixing beta               =       0.6000
     number of iterations used =            8  plain     mixing
     Exchange-correlation      = SLA PW PBE PBE ( 1  4  3  4 0 0)
     nstep                     =           50

     celldm(1)=   1.889726  celldm(2)=   0.000000  celldm(3)=   0.000000
     celldm(4)=   0.000000  celldm(5)=   0.000000  celldm(6)=   0.000000

     crystal axes: (cart. coord. in units of alat)
               a(1) = (   4.567506  -2.637051   0.000000 )
               a(2) = (  -4.567506  -2.637051   0.000000 )
               a(3) = (   0.000000   0.000000  -4.972461 )

     reciprocal axes: (cart. coord. in units 2 pi/alat)
               b(1) = (  0.109469 -0.189606  0.000000 )
               b(2) = ( -0.109469 -0.189606  0.000000 )
               b(3) = (  0.000000  0.000000 -0.201108 )

     PseudoPot. # 1 for Nb read from file:
     ./Nb.pbe-nsp-van.UPF
     MD5 check sum: 0a22fc7fb0ba19a08ca5db297a5d2854
     Pseudo is Ultrasoft + core correction, Zval = 13.0
     Generated by new atomic code, or converted to UPF format
     Using radial grid of  887 points,  6 beta functions with:
                l(1) =   0
                l(2) =   0
                l(3) =   1
                l(4) =   1
                l(5) =   2
                l(6) =   2
     Q(r) pseudized with  6 coefficients,  rinner =    1.000   1.000   1.000
                                                       1.000   1.000

     PseudoPot. # 2 for Ti read from file:
     ./Ti.pbe-sp-van_ak.UPF
     MD5 check sum: f98fea3e8887528921fefa5636a534ca
     Pseudo is Ultrasoft, Zval = 12.0
     Generated by new atomic code, or converted to UPF format
     Using radial grid of  851 points,  6 beta functions with:
                l(1) =   0
                l(2) =   0
                l(3) =   1
                l(4) =   1
                l(5) =   2
                l(6) =   2
     Q(r) pseudized with  8 coefficients,  rinner =    1.000   1.000   1.000
                                                       1.000   1.000

     atomic species   valence    mass     pseudopotential
        Nb            13.00    92.90638     Nb( 1.00)
        Ti            12.00    47.86700     Ti( 1.00)

      4 Sym. Ops. (no inversion) found
          (note:  8 additional sym.ops. were found but ignored
           their fractional translations are incommensurate with FFT grid)

   Cartesian axes

     site n.     atom                  positions (alat units)
         1           Ti  tau(   1) = (   0.0000000  -5.2741024  -4.9724614  )
         2           Ti  tau(   2) = (   0.0000015  -1.7580350  -2.4862307  )
         3           Ti  tau(   3) = (  -1.5225021  -2.6370512  -4.9724614  )
         4           Ti  tau(   4) = (  -1.5225006  -4.3950862  -2.4862307  )
         5           Ti  tau(   5) = (   1.5225021  -2.6370512  -4.9724614  )
         6           Nb  tau(   6) = (   1.5225036  -4.3950862  -2.4862307  )

     number of k points=   252  Marzari-Vanderbilt smearing, width (Ry)=  0.0200

     Number of k-points >= 100: set verbosity='high' to print them.

     Initial potential from superposition of free atoms

     starting charge   67.99705, renormalised to   73.00000
     Starting wfcs are   63 randomized atomic wfcs

     Self-consistent Calculation

     iteration #  1     ecut=    40.00 Ry     beta= 0.60
     Davidson diagonalization with overlap
     ethr =  1.00E-02,  avg # of iterations =  4.5

     total energy              =    -698.31414115 Ry
     Harris-Foulkes estimate   =    -702.92496479 Ry
     estimated scf accuracy    <       6.14720872 Ry

[...]

     iteration # 26     ecut=    40.00 Ry     beta= 0.60
     Davidson diagonalization with overlap
     c_bands:  1 eigenvalues not converged
     c_bands:  1 eigenvalues not converged
     c_bands:  1 eigenvalues not converged
     ethr =  8.74E-07,  avg # of iterations =  3.9

[...]

     End of self-consistent calculation

     Number of k-points >= 100: set verbosity='high' to print the bands.

     the Fermi energy is    12.1481 ev

!    total energy              =    -701.12400246 Ry
     Harris-Foulkes estimate   =    -701.12400246 Ry
     estimated scf accuracy    <          8.8E-11 Ry

     The total energy is the sum of the following terms:

     one-electron contribution =    -257.90544410 Ry
     hartree contribution      =     147.81099132 Ry
     xc contribution           =     -90.42992587 Ry
     ewald contribution        =    -500.59567069 Ry
     smearing contrib. (-TS)   =      -0.00395311 Ry

     convergence has been achieved in  41 iterations

     Forces acting on atoms (cartesian axes, Ry/au):

     atom    1 type  2   force =     0.00261082    0.00150736    0.00000000
     atom    2 type  2   force =     0.00001779   -0.00000981    0.00000000
     atom    3 type  2   force =    -0.00261866    0.00150786    0.00000000
     atom    4 type  2   force =     0.00000040    0.00002031    0.00000000
     atom    5 type  2   force =    -0.00000349   -0.00302175    0.00000000
     atom    6 type  1   force =    -0.00000686   -0.00000396    0.00000000

     Total force =     0.005230     Total SCF correction =     0.000011

     Computing stress (Cartesian axis) and pressure

          total   stress  (Ry/bohr**3)                   (kbar)     P= -133.88
  -0.00087790   0.00000000   0.00000000       -129.14      0.00      0.00
   0.00000000  -0.00087790  -0.00000000          0.00   -129.14     -0.00
  -0.00000000   0.00000000  -0.00097441         -0.00      0.00   -143.34

     BFGS Geometry Optimization

     number of scf cycles    =   1
     number of bfgs steps    =   0

     enthalpy new            =    -701.1240024644 Ry

     new trust radius        =       0.1385189094 bohr
     new conv_thr            =            1.0E-10 Ry

     new unit-cell volume =    754.41327 a.u.^3 (   111.79251 Ang^3 )
     density =      4.93503 g/cm^3

CELL_PARAMETERS (alat=  1.88972599)
   4.467260344  -2.579173645  -0.000000000
  -4.467260780  -2.579174399   0.000000000
  -0.000000000   0.000000000  -4.851330730

ATOMIC_POSITIONS (angstrom)
Ti       0.001350827  -5.157567892  -4.851330730
Ti       0.000010551  -1.719455285  -2.425665365
Ti      -1.490442391  -2.578393737  -4.851330730
Ti      -1.489085521  -4.298613844  -2.425665365
Ti       1.489084832  -2.580737843  -4.851330730
Nb       1.489084429  -4.298626155  -2.425665365

     NEW-OLD atomic charge density approx. for the potential
     extrapolated charge   68.13921, renormalised to   73.00000

[...]

     enthalpy old            =    -701.1240024644 Ry
     enthalpy new            =    -701.1626418653 Ry

     CASE: enthalpy_new < enthalpy_old

[...]

     Threshold (ethr) on eigenvalues was too large:
     Diagonalizing with lowered threshold

     Davidson diagonalization with overlap
     ethr =  5.78E-08,  avg # of iterations =  3.7

[...]

     Total force =     0.000002     Total SCF correction =     0.000002
     SCF correction compared to forces is large: reduce conv_thr to get better values

[...]

     small trust_radius: resetting bfgs history

[...]

     number of scf cycles    =  13
     number of bfgs steps    =  12

     enthalpy old            =    -701.1750528535 Ry
     enthalpy new            =    -701.1750542281 Ry

     CASE: enthalpy_new < enthalpy_old

     Message from routine bfgs:
     history already reset at previous step: stopping
     small trust_radius: resetting bfgs history

     new trust radius        =       0.0000095263 bohr
     new conv_thr            =            1.0E-12 Ry

     new unit-cell volume =    707.37218 a.u.^3 (   104.82174 Ang^3 )
     density =      5.26322 g/cm^3

[...]

ATOMIC_POSITIONS (angstrom)
Ti      -0.002098084  -5.066559436  -4.717401635
Ti       0.000010818  -1.688392369  -2.358700818
Ti      -1.460163335  -2.533895091  -4.717401635
Ti      -1.462180785  -4.221143402  -2.358700818
Ti       1.462217871  -2.530266829  -4.717401635
Nb       1.462229577  -4.221131093  -2.358700818

     NEW-OLD atomic charge density approx. for the potential
     extrapolated charge   72.99971, renormalised to   73.00000

[...]

     Threshold (ethr) on eigenvalues was too large:
     Diagonalizing with lowered threshold

     Davidson diagonalization with overlap
     ethr =  9.44E-12,  avg # of iterations =  1.8

[...]

     Total force =     0.000001     Total SCF correction =     0.000001
     SCF correction compared to forces is large: reduce conv_thr to get better values

[...]

     bfgs converged in  14 scf cycles and  13 bfgs steps
     (criteria: energy <  1.0E-10 Ry, force <  1.0E-05Ry/Bohr, cell <  1.0E-03kbar)

     End of BFGS Geometry Optimization

     Final enthalpy =    -701.1750540072 Ry
Begin final coordinates
     new unit-cell volume =    707.37218 a.u.^3 (   104.82174 Ang^3 )
     density =      5.26322 g/cm^3

CELL_PARAMETERS (alat=  1.88972599)
   4.386716894  -2.532675738  -0.000000000
  -4.386713976  -2.532670684   0.000000000
  -0.000000000   0.000000000  -4.717401635

ATOMIC_POSITIONS (angstrom)
Ti      -0.002098084  -5.066559436  -4.717401635
Ti       0.000010818  -1.688392369  -2.358700818
Ti      -1.460163335  -2.533895091  -4.717401635
Ti      -1.462180785  -4.221143402  -2.358700818
Ti       1.462217871  -2.530266829  -4.717401635
Nb       1.462229577  -4.221131093  -2.358700818
End final coordinates

     A final scf calculation at the relaxed structure.
     The G-vectors are recalculated for the final unit cell
     Results may differ from those at the preceding step.

     bravais-lattice index     =            0
     lattice parameter (alat)  =       1.8897  a.u.
     unit-cell volume          =     707.3722 (a.u.)^3
     number of atoms/cell      =            6
     number of atomic types    =            2
     number of electrons       =        73.00
     number of Kohn-Sham states=           44
     kinetic-energy cutoff     =      40.0000  Ry
     charge density cutoff     =     400.0000  Ry
     convergence threshold     =      1.0E-12
     mixing beta               =       0.6000
     number of iterations used =            8  plain     mixing
     Exchange-correlation      = SLA PW PBE PBE ( 1  4  3  4 0 0)

     celldm(1)=   1.889726  celldm(2)=   0.000000  celldm(3)=   0.000000
     celldm(4)=   0.000000  celldm(5)=   0.000000  celldm(6)=   0.000000

     crystal axes: (cart. coord. in units of alat)
               a(1) = (   4.386717  -2.532676  -0.000000 )
               a(2) = (  -4.386714  -2.532671   0.000000 )
               a(3) = (  -0.000000   0.000000  -4.717402 )

     reciprocal axes: (cart. coord. in units 2 pi/alat)
               b(1) = (  0.113980 -0.197420 -0.000000 )
               b(2) = ( -0.113981 -0.197420 -0.000000 )
               b(3) = ( -0.000000  0.000000 -0.211981 )

     PseudoPot. # 1 for Nb read from file:
     ./Nb.pbe-nsp-van.UPF
     MD5 check sum: 0a22fc7fb0ba19a08ca5db297a5d2854
     Pseudo is Ultrasoft + core correction, Zval = 13.0
     Generated by new atomic code, or converted to UPF format
     Using radial grid of  887 points,  6 beta functions with:
                l(1) =   0
                l(2) =   0
                l(3) =   1
                l(4) =   1
                l(5) =   2
                l(6) =   2
     Q(r) pseudized with  6 coefficients,  rinner =    1.000   1.000   1.000
                                                       1.000   1.000

     PseudoPot. # 2 for Ti read from file:
     ./Ti.pbe-sp-van_ak.UPF
     MD5 check sum: f98fea3e8887528921fefa5636a534ca
     Pseudo is Ultrasoft, Zval = 12.0
     Generated by new atomic code, or converted to UPF format
     Using radial grid of  851 points,  6 beta functions with:
                l(1) =   0
                l(2) =   0
                l(3) =   1
                l(4) =   1
                l(5) =   2
                l(6) =   2
     Q(r) pseudized with  8 coefficients,  rinner =    1.000   1.000   1.000
                                                       1.000   1.000

     atomic species   valence    mass     pseudopotential
        Nb            13.00    92.90638     Nb( 1.00)
        Ti            12.00    47.86700     Ti( 1.00)

      4 Sym. Ops. (no inversion) found
          (note:  8 additional sym.ops. were found but ignored
           their fractional translations are incommensurate with FFT grid)

   Cartesian axes

     site n.     atom                  positions (alat units)
         1           Ti  tau(   1) = (  -0.0020981  -5.0665598  -4.7174020  )
         2           Ti  tau(   2) = (   0.0000108  -1.6883925  -2.3587010  )
         3           Ti  tau(   3) = (  -1.4601634  -2.5338953  -4.7174020  )
         4           Ti  tau(   4) = (  -1.4621809  -4.2211437  -2.3587010  )
         5           Ti  tau(   5) = (   1.4622180  -2.5302670  -4.7174020  )
         6           Nb  tau(   6) = (   1.4622297  -4.2211314  -2.3587010  )

     number of k points=   252  Marzari-Vanderbilt smearing, width (Ry)=  0.0200

     Number of k-points >= 100: set verbosity='high' to print them.

     Initial potential from superposition of free atoms

     starting charge   67.99705, renormalised to   73.00000
     Starting wfcs are   63 randomized atomic wfcs

     Self-consistent Calculation

     iteration #  1     ecut=    40.00 Ry     beta= 0.60
     Davidson diagonalization with overlap
     c_bands:  1 eigenvalues not converged
     c_bands:  1 eigenvalues not converged
     c_bands:  1 eigenvalues not converged
     c_bands:  1 eigenvalues not converged
     c_bands:  2 eigenvalues not converged
     c_bands:  1 eigenvalues not converged
     c_bands:  1 eigenvalues not converged
     c_bands:  1 eigenvalues not converged
     c_bands:  1 eigenvalues not converged
     c_bands:  2 eigenvalues not converged
     c_bands:  2 eigenvalues not converged
     c_bands:  3 eigenvalues not converged
     c_bands:  1 eigenvalues not converged
     c_bands:  3 eigenvalues not converged
     c_bands:  4 eigenvalues not converged
     c_bands:  3 eigenvalues not converged
     c_bands:  2 eigenvalues not converged
     c_bands:  2 eigenvalues not converged
     c_bands:  1 eigenvalues not converged
     c_bands:  1 eigenvalues not converged
     c_bands:  1 eigenvalues not converged
     c_bands:  1 eigenvalues not converged
     c_bands:  1 eigenvalues not converged
     c_bands:  1 eigenvalues not converged
     c_bands:  1 eigenvalues not converged
     c_bands:  2 eigenvalues not converged
     c_bands:  1 eigenvalues not converged
     c_bands:  1 eigenvalues not converged
     c_bands:  1 eigenvalues not converged
     c_bands:  1 eigenvalues not converged
     c_bands:  1 eigenvalues not converged
     c_bands:  4 eigenvalues not converged
     c_bands:  2 eigenvalues not converged
     c_bands:  1 eigenvalues not converged
     c_bands:  1 eigenvalues not converged
     c_bands:  1 eigenvalues not converged
     c_bands:  3 eigenvalues not converged
     c_bands:  1 eigenvalues not converged
     c_bands:  1 eigenvalues not converged
     c_bands:  1 eigenvalues not converged
     c_bands:  1 eigenvalues not converged
     c_bands:  2 eigenvalues not converged
     c_bands:  1 eigenvalues not converged
     c_bands:  1 eigenvalues not converged
     c_bands:  1 eigenvalues not converged
     c_bands:  1 eigenvalues not converged
     c_bands:  1 eigenvalues not converged
     c_bands:  1 eigenvalues not converged
     c_bands:  1 eigenvalues not converged
     c_bands:  1 eigenvalues not converged
     c_bands:  1 eigenvalues not converged
     c_bands:  2 eigenvalues not converged
     c_bands:  2 eigenvalues not converged
     c_bands:  3 eigenvalues not converged
     c_bands:  2 eigenvalues not converged
     c_bands:  1 eigenvalues not converged
     c_bands:  1 eigenvalues not converged
     c_bands:  1 eigenvalues not converged
     c_bands:  1 eigenvalues not converged
     c_bands:  3 eigenvalues not converged
[...]
     c_bands:  1 eigenvalues not converged
     c_bands:  1 eigenvalues not converged
     c_bands:  1 eigenvalues not converged
     c_bands:  1 eigenvalues not converged
     c_bands:  2 eigenvalues not converged
     c_bands:  1 eigenvalues not converged
     c_bands:  2 eigenvalues not converged
     c_bands:  2 eigenvalues not converged
     c_bands:  1 eigenvalues not converged
     c_bands:  1 eigenvalues not converged
     c_bands:  2 eigenvalues not converged
     c_bands:  2 eigenvalues not converged
     c_bands:  1 eigenvalues not converged
     c_bands:  1 eigenvalues not converged
     c_bands:  2 eigenvalues not converged
     ethr =  1.00E-06,  avg # of iterations = 19.1

[...]

     total energy              =    -701.16903717 Ry
     Harris-Foulkes estimate   =    -701.16903717 Ry
     estimated scf accuracy    <          1.7E-11 Ry

     iteration # 38     ecut=    40.00 Ry     beta= 0.60
     Davidson diagonalization with overlap
     ethr =  1.00E-13,  avg # of iterations =  3.3

     End of self-consistent calculation

     Number of k-points >= 100: set verbosity='high' to print the bands.

     the Fermi energy is    14.2566 ev

!    total energy              =    -701.16903717 Ry
     Harris-Foulkes estimate   =    -701.16903717 Ry
     estimated scf accuracy    <          6.6E-13 Ry

     The total energy is the sum of the following terms:

     one-electron contribution =    -223.96854193 Ry
     hartree contribution      =     137.20167307 Ry
     xc contribution           =     -91.04383109 Ry
     ewald contribution        =    -523.35387449 Ry
     smearing contrib. (-TS)   =      -0.00446273 Ry

     convergence has been achieved in  38 iterations

     Forces acting on atoms (cartesian axes, Ry/au):

     atom    1 type  2   force =     0.00009551    0.00005514   -0.00000000
     atom    2 type  2   force =     0.00000661    0.00001340    0.00000000
     atom    3 type  2   force =    -0.00010715    0.00005566    0.00000000
     atom    4 type  2   force =     0.00001490   -0.00000098   -0.00000000
     atom    5 type  2   force =    -0.00000537   -0.00012062   -0.00000000
     atom    6 type  1   force =    -0.00000449   -0.00000259    0.00000000

     Total force =     0.000204     Total SCF correction =     0.000001

     Computing stress (Cartesian axis) and pressure

          total   stress  (Ry/bohr**3)                   (kbar)     P=   -6.93
  -0.00004582  -0.00000000   0.00000000         -6.74     -0.00      0.00
  -0.00000000  -0.00004582  -0.00000000         -0.00     -6.74     -0.00
  -0.00000000   0.00000000  -0.00004962         -0.00      0.00     -7.30

     General routines

     Parallel routines

      45h

   This run was terminated on:  15:26:53  30Jan2020

   JOB DONE.