     Program PWSCF v.6.0 (svn rev. 13079) starts on 26Apr2018 at 15:28:38

     Current dimensions of program PWSCF are:
     Max number of different atomic species (ntypx) = 10
     Max number of k-points (npk) =  40000
     Max angular momentum in pseudopotentials (lmaxx) =  3

     Subspace diagonalization in iterative solution of the eigenvalue problem:
     a serial algorithm will be used

     bravais-lattice index     =            0
     lattice parameter (alat)  =       1.8897  a.u.
     unit-cell volume          =     538.8952 (a.u.)^3
     number of atoms/cell      =            4
     number of atomic types    =            2
     number of electrons       =        49.00
     number of Kohn-Sham states=           30
     kinetic-energy cutoff     =      40.0000  Ry
     charge density cutoff     =     400.0000  Ry
     convergence threshold     =      1.0E-10
     mixing beta               =       0.6000
     number of iterations used =            8  plain     mixing
     Exchange-correlation      = SLA  PW   PBE  PBE ( 1  4  3  4 0 0)
     nstep                     =           50

     celldm(1)=   1.889726  celldm(2)=   0.000000  celldm(3)=   0.000000
     celldm(4)=   0.000000  celldm(5)=   0.000000  celldm(6)=   0.000000

     crystal axes: (cart. coord. in units of alat)
               a(1) = (  -1.522502  -2.637051   0.000000 )
               a(2) = (   3.045004   0.000000   0.000000 )
               a(3) = (   0.000000   0.000000   9.944922 )

     reciprocal axes: (cart. coord. in units 2 pi/alat)
               b(1) = (  0.000000 -0.379211  0.000000 )
               b(2) = (  0.328407 -0.189606  0.000000 )
               b(3) = ( -0.000000  0.000000  0.100554 )

     PseudoPot. # 1 for Nb read from file:
     ./Nb.pbe-nsp-van.UPF
     MD5 check sum: 0a22fc7fb0ba19a08ca5db297a5d2854
     Pseudo is Ultrasoft + core correction, Zval = 13.0
     Generated by new atomic code, or converted to UPF format
     Using radial grid of  887 points,  6 beta functions with:
                l(1) =   0
                l(2) =   0
                l(3) =   1
                l(4) =   1
                l(5) =   2
                l(6) =   2
     Q(r) pseudized with  6 coefficients,  rinner =    1.000   1.000   1.000
                                                       1.000   1.000

     PseudoPot. # 2 for Ti read from file:
     ./Ti.pbe-sp-van_ak.UPF
     MD5 check sum: f98fea3e8887528921fefa5636a534ca
     Pseudo is Ultrasoft, Zval = 12.0
     Generated by new atomic code, or converted to UPF format
     Using radial grid of  851 points,  6 beta functions with:
                l(1) =   0
                l(2) =   0
                l(3) =   1
                l(4) =   1
                l(5) =   2
                l(6) =   2
     Q(r) pseudized with  8 coefficients,  rinner =    1.000   1.000   1.000
                                                       1.000   1.000

     atomic species   valence    mass     pseudopotential
        Nb            13.00    92.90638     Nb( 1.00)
        Ti            12.00    47.86700     Ti( 1.00)

     12 Sym. Ops. (no inversion) found ( 6 have fractional translation)

   Cartesian axes

     site n.     atom                  positions (alat units)
         1           Ti  tau(   1) = (   1.5225021  -2.6370512   4.9724614  )
         2           Ti  tau(   2) = (   0.0000015  -1.7580350   2.4862307  )
         3           Ti  tau(   3) = (   1.5225021  -2.6370512   9.9449228  )
         4           Nb  tau(   4) = (   0.0000015  -1.7580350   7.4586921  )

     number of k points=   160  Marzari-Vanderbilt smearing, width (Ry)=  0.0200

     Number of k-points >= 100: set verbosity='high' to print them.

     Initial potential from superposition of free atoms

     starting charge   45.99713, renormalised to   49.00000
     Starting wfc are   43 randomized atomic wfcs

     Self-consistent Calculation

     iteration #  1     ecut=    40.00 Ry     beta=0.60
     Davidson diagonalization with overlap
     ethr =  1.00E-02,  avg # of iterations =  4.0

     total energy              =    -395.62918568 Ry
     Harris-Foulkes estimate   =    -475.76401331 Ry
     estimated scf accuracy    <      97.32988961 Ry

[...]

     iteration # 20     ecut=    40.00 Ry     beta=0.60
     Davidson diagonalization with overlap
     c_bands:  1 eigenvalues not converged
     ethr =  3.52E-06,  avg # of iterations =  7.4

[...]

     End of self-consistent calculation

     Number of k-points >= 100: set verbosity='high' to print the bands.

     the Fermi energy is    12.5619 ev

!    total energy              =    -467.83708439 Ry
     Harris-Foulkes estimate   =    -467.83708439 Ry
     estimated scf accuracy    <          3.7E-11 Ry

     The total energy is the sum of the following terms:

     one-electron contribution =    -163.59740164 Ry
     hartree contribution      =      95.43254260 Ry
     xc contribution           =     -61.59109082 Ry
     ewald contribution        =    -338.07875269 Ry
     smearing contrib. (-TS)   =      -0.00238184 Ry

     convergence has been achieved in  31 iterations

     Forces acting on atoms (Ry/au):

     atom    1 type  2   force =    -0.00000000    0.00000000   -0.00649423
     atom    2 type  2   force =     0.00000000    0.00000000    0.00000000
     atom    3 type  2   force =     0.00000000   -0.00000000    0.00649423
     atom    4 type  1   force =     0.00000000    0.00000000    0.00000000

     Total force =     0.009184     Total SCF correction =     0.000002

     entering subroutine stress ...

          total   stress  (Ry/bohr**3)                   (kbar)     P= -130.37
  -0.00088251   0.00000000   0.00000000       -129.82      0.00      0.00
   0.00000000  -0.00088251   0.00000000          0.00   -129.82      0.00
   0.00000000  -0.00000000  -0.00089370          0.00     -0.00   -131.47

     BFGS Geometry Optimization

     number of scf cycles    =   1
     number of bfgs steps    =   0

     enthalpy new            =    -467.8370843923 Ry

     new trust radius        =       0.1037323956 bohr
     new conv_thr            =            1.0E-10 Ry

     new unit-cell volume =    503.86367 a.u.^3 (    74.66489 Ang^3 )

CELL_PARAMETERS (alat=  1.88972599)
  -1.488911511  -2.578870571   0.000000000
   2.977823023   0.000000000   0.000000000
   0.000000000   0.000000000   9.722727321

ATOMIC_POSITIONS (angstrom)
Ti       1.488911511  -2.578870571   4.858003845
Ti       0.000001489  -1.719247907   2.430681830
Ti       1.488911511  -2.578870571   9.726087136
Nb       0.000001489  -1.719247907   7.292045490

     NEW-OLD atomic charge density approx. for the potential
     extrapolated charge   45.80202, renormalised to   49.00000

[...]

     enthalpy old            =    -467.8370843923 Ry
     enthalpy new            =    -467.8611578005 Ry

     CASE: enthalpy_new < enthalpy_old

[...]

     Total force =     0.000024     Total SCF correction =     0.000004
     SCF correction compared to forces is large: reduce conv_thr to get better values

[...]

     Threshold (ethr) on eigenvalues was too large:
     Diagonalizing with lowered threshold

     Davidson diagonalization with overlap
     ethr =  4.62E-09,  avg # of iterations =  2.0

[...]

     small trust_radius: resetting bfgs history

[...]

     number of scf cycles    =  14
     number of bfgs steps    =  13

     enthalpy old            =    -467.8696050234 Ry
     enthalpy new            =    -467.8696050237 Ry

     CASE: enthalpy_new < enthalpy_old

     Message from routine bfgs:
     history already reset at previous step: stopping
     small trust_radius: resetting bfgs history

     new trust radius        =       0.0000056464 bohr
     new conv_thr            =            1.0E-12 Ry

     new unit-cell volume =    474.45124 a.u.^3 (    70.30642 Ang^3 )

[...]

ATOMIC_POSITIONS (angstrom)
Ti       1.457160202  -2.523875693   4.712524998
Ti       0.000001458  -1.682584637   2.389625443
Ti       1.457160202  -2.523875693   9.625227660
Nb       0.000001458  -1.682584637   7.168876329

     NEW-OLD atomic charge density approx. for the potential
     extrapolated charge   49.00012, renormalised to   49.00000

[...]

     Threshold (ethr) on eigenvalues was too large:
     Diagonalizing with lowered threshold

     Davidson diagonalization with overlap
     ethr =  7.51E-12,  avg # of iterations =  1.4

[...]

     Total force =     0.000004     Total SCF correction =     0.000001
     SCF correction compared to forces is large: reduce conv_thr to get better values

[...]

     bfgs converged in  15 scf cycles and  14 bfgs steps
     (criteria: energy <  1.0E-10, force <  1.0E-05, cell <  1.0E-03)

     End of BFGS Geometry Optimization

     Final enthalpy =    -467.8696050237 Ry
Begin final coordinates
     new unit-cell volume =    474.45124 a.u.^3 (    70.30642 Ang^3 )

CELL_PARAMETERS (alat=  1.88972599)
  -1.457160202  -2.523875693   0.000000000
   2.914320403   0.000000000   0.000000000
   0.000000000   0.000000000   9.558501772

ATOMIC_POSITIONS (angstrom)
Ti       1.457160202  -2.523875693   4.712524998
Ti       0.000001458  -1.682584637   2.389625443
Ti       1.457160202  -2.523875693   9.625227660
Nb       0.000001458  -1.682584637   7.168876329
End final coordinates

     A final scf calculation at the relaxed structure.
     The G-vectors are recalculated for the final unit cell
     Results may differ from those at the preceding step.

   Info: using nr1, nr2, nr3 values from input

   Info: using nr1, nr2, nr3 values from input

     bravais-lattice index     =            0
     lattice parameter (alat)  =       1.8897  a.u.
     unit-cell volume          =     474.4512 (a.u.)^3
     number of atoms/cell      =            4
     number of atomic types    =            2
     number of electrons       =        49.00
     number of Kohn-Sham states=           30
     kinetic-energy cutoff     =      40.0000  Ry
     charge density cutoff     =     400.0000  Ry
     convergence threshold     =      1.0E-12
     mixing beta               =       0.6000
     number of iterations used =            8  plain     mixing
     Exchange-correlation      = SLA  PW   PBE  PBE ( 1  4  3  4 0 0)

     celldm(1)=   1.889726  celldm(2)=   0.000000  celldm(3)=   0.000000
     celldm(4)=   0.000000  celldm(5)=   0.000000  celldm(6)=   0.000000

     crystal axes: (cart. coord. in units of alat)
               a(1) = (  -1.457160  -2.523876   0.000000 )
               a(2) = (   2.914320   0.000000   0.000000 )
               a(3) = (   0.000000   0.000000   9.558502 )

     reciprocal axes: (cart. coord. in units 2 pi/alat)
               b(1) = (  0.000000 -0.396216  0.000000 )
               b(2) = (  0.343133 -0.198108 -0.000000 )
               b(3) = ( -0.000000  0.000000  0.104619 )

     PseudoPot. # 1 for Nb read from file:
     ./Nb.pbe-nsp-van.UPF
     MD5 check sum: 0a22fc7fb0ba19a08ca5db297a5d2854
     Pseudo is Ultrasoft + core correction, Zval = 13.0
     Generated by new atomic code, or converted to UPF format
     Using radial grid of  887 points,  6 beta functions with:
                l(1) =   0
                l(2) =   0
                l(3) =   1
                l(4) =   1
                l(5) =   2
                l(6) =   2
     Q(r) pseudized with  6 coefficients,  rinner =    1.000   1.000   1.000
                                                       1.000   1.000

     PseudoPot. # 2 for Ti read from file:
     ./Ti.pbe-sp-van_ak.UPF
     MD5 check sum: f98fea3e8887528921fefa5636a534ca
     Pseudo is Ultrasoft, Zval = 12.0
     Generated by new atomic code, or converted to UPF format
     Using radial grid of  851 points,  6 beta functions with:
                l(1) =   0
                l(2) =   0
                l(3) =   1
                l(4) =   1
                l(5) =   2
                l(6) =   2
     Q(r) pseudized with  8 coefficients,  rinner =    1.000   1.000   1.000
                                                       1.000   1.000

     atomic species   valence    mass     pseudopotential
        Nb            13.00    92.90638     Nb( 1.00)
        Ti            12.00    47.86700     Ti( 1.00)

     12 Sym. Ops. (no inversion) found ( 6 have fractional translation)

   Cartesian axes

     site n.     atom                  positions (alat units)
         1           Ti  tau(   1) = (   1.4571603  -2.5238759   4.7125254  )
         2           Ti  tau(   2) = (   0.0000015  -1.6825848   2.3896256  )
         3           Ti  tau(   3) = (   1.4571603  -2.5238759   9.6252284  )
         4           Nb  tau(   4) = (   0.0000015  -1.6825848   7.1688769  )

     number of k points=   160  Marzari-Vanderbilt smearing, width (Ry)=  0.0200

     Number of k-points >= 100: set verbosity='high' to print them.

     Initial potential from superposition of free atoms

     starting charge   45.99713, renormalised to   49.00000
     Starting wfc are   43 randomized atomic wfcs

     Self-consistent Calculation

     iteration #  1     ecut=    40.00 Ry     beta=0.60
     Davidson diagonalization with overlap
     c_bands:  1 eigenvalues not converged
     c_bands:  1 eigenvalues not converged
     c_bands:  1 eigenvalues not converged
     c_bands:  1 eigenvalues not converged
     c_bands:  2 eigenvalues not converged
     c_bands:  1 eigenvalues not converged
     c_bands:  2 eigenvalues not converged
     c_bands:  2 eigenvalues not converged
     c_bands:  2 eigenvalues not converged
     c_bands:  1 eigenvalues not converged
     c_bands:  1 eigenvalues not converged
     c_bands:  2 eigenvalues not converged
     c_bands:  2 eigenvalues not converged
     c_bands:  1 eigenvalues not converged
     c_bands:  1 eigenvalues not converged
     c_bands:  2 eigenvalues not converged
     c_bands:  2 eigenvalues not converged
     c_bands:  1 eigenvalues not converged
     c_bands:  1 eigenvalues not converged
     c_bands:  1 eigenvalues not converged
     c_bands:  1 eigenvalues not converged
     c_bands:  2 eigenvalues not converged
     c_bands:  2 eigenvalues not converged
     c_bands:  3 eigenvalues not converged
     c_bands:  2 eigenvalues not converged
     c_bands:  2 eigenvalues not converged
     c_bands:  2 eigenvalues not converged
     c_bands:  2 eigenvalues not converged
     c_bands:  2 eigenvalues not converged
     c_bands:  2 eigenvalues not converged
     c_bands:  2 eigenvalues not converged
     c_bands:  3 eigenvalues not converged
     c_bands:  2 eigenvalues not converged
     c_bands:  1 eigenvalues not converged
     c_bands:  1 eigenvalues not converged
     c_bands:  1 eigenvalues not converged
     c_bands:  1 eigenvalues not converged
     c_bands:  1 eigenvalues not converged
     c_bands:  1 eigenvalues not converged
     c_bands:  2 eigenvalues not converged
     c_bands:  3 eigenvalues not converged
     c_bands:  3 eigenvalues not converged
     c_bands:  3 eigenvalues not converged
     c_bands:  2 eigenvalues not converged
     c_bands:  2 eigenvalues not converged
     c_bands:  3 eigenvalues not converged
     c_bands:  2 eigenvalues not converged
     c_bands:  1 eigenvalues not converged
     c_bands:  2 eigenvalues not converged
     c_bands:  2 eigenvalues not converged
     c_bands:  3 eigenvalues not converged
     c_bands:  1 eigenvalues not converged
     c_bands:  2 eigenvalues not converged
     c_bands:  1 eigenvalues not converged
     c_bands:  2 eigenvalues not converged
     c_bands:  1 eigenvalues not converged
     c_bands:  1 eigenvalues not converged
     c_bands:  1 eigenvalues not converged
     c_bands:  1 eigenvalues not converged
     c_bands:  1 eigenvalues not converged
     c_bands:  2 eigenvalues not converged
     c_bands:  1 eigenvalues not converged
     c_bands:  1 eigenvalues not converged
     c_bands:  1 eigenvalues not converged
     ethr =  1.00E-06,  avg # of iterations = 17.2

[...]

     total energy              =    -467.86600221 Ry
     Harris-Foulkes estimate   =    -467.86600221 Ry
     estimated scf accuracy    <          3.6E-12 Ry

     iteration # 36     ecut=    40.00 Ry     beta=0.60
     Davidson diagonalization with overlap
     ethr =  1.00E-13,  avg # of iterations =  1.0

     End of self-consistent calculation

     Number of k-points >= 100: set verbosity='high' to print the bands.

     the Fermi energy is    14.6070 ev

!    total energy              =    -467.86600221 Ry
     Harris-Foulkes estimate   =    -467.86600221 Ry
     estimated scf accuracy    <          8.3E-13 Ry

     The total energy is the sum of the following terms:

     one-electron contribution =    -141.39220107 Ry
     hartree contribution      =      88.49985404 Ry
     xc contribution           =     -61.99340102 Ry
     ewald contribution        =    -352.97737504 Ry
     smearing contrib. (-TS)   =      -0.00287913 Ry

     convergence has been achieved in  36 iterations

     Forces acting on atoms (Ry/au):

     atom    1 type  2   force =    -0.00000000    0.00000000   -0.00006973
     atom    2 type  2   force =     0.00000000    0.00000000    0.00000000
     atom    3 type  2   force =     0.00000000    0.00000000    0.00006973
     atom    4 type  1   force =    -0.00000000    0.00000000    0.00000000

     Total force =     0.000099     Total SCF correction =     0.000001

     entering subroutine stress ...

          total   stress  (Ry/bohr**3)                   (kbar)     P=   -5.84
  -0.00004005   0.00000000   0.00000000         -5.89      0.00      0.00
  -0.00000000  -0.00004005   0.00000000         -0.00     -5.89      0.00
   0.00000000   0.00000000  -0.00003898          0.00      0.00     -5.73

     General routines

     Parallel routines

   This run was terminated on:  16:52:54  26Apr2018

   JOB DONE.