     Program PWSCF v.6.3MaX starts on  8Feb2020 at 12:37:14

     R & G space division:  proc/nbgrp/npool/nimage =       4
     Waiting for input...
     Reading input from standard input

     Current dimensions of program PWSCF are:
     Max number of different atomic species (ntypx) = 10
     Max number of k-points (npk) =  40000
     Max angular momentum in pseudopotentials (lmaxx) =  3
     Message from routine iosys:
     minimal I/O required, wf_collect reset to FALSE

     Subspace diagonalization in iterative solution of the eigenvalue problem:
     a serial algorithm will be used

     warning: symmetry operation #  2 not compatible with FFT grid.
   0   1  -1
   1   0  -1
   0   0  -1
     warning: symmetry operation #  3 not compatible with FFT grid.
   0   1  -1
   0   1   0
  -1   1   0
     warning: symmetry operation #  4 not compatible with FFT grid.
   1   0   0
   1   0  -1
   1  -1   0

     bravais-lattice index     =            0
     lattice parameter (alat)  =       1.8897  a.u.
     unit-cell volume          =    1077.7903 (a.u.)^3
     number of atoms/cell      =            8
     number of atomic types    =            2
     number of electrons       =        97.00
     number of Kohn-Sham states=           59
     kinetic-energy cutoff     =      40.0000  Ry
     charge density cutoff     =     400.0000  Ry
     convergence threshold     =      1.0E-10
     mixing beta               =       0.6000
     number of iterations used =            8  plain     mixing
     Exchange-correlation      = SLA PW PBE PBE ( 1  4  3  4 0 0)
     nstep                     =           50

     celldm(1)=   1.889726  celldm(2)=   0.000000  celldm(3)=   0.000000
     celldm(4)=   0.000000  celldm(5)=   0.000000  celldm(6)=   0.000000

     crystal axes: (cart. coord. in units of alat)
               a(1) = (   4.567506   2.637051  -4.972461 )
               a(2) = (   6.090008   0.000000   0.000000 )
               a(3) = (   1.522502  -2.637051  -4.972461 )

     reciprocal axes: (cart. coord. in units 2 pi/alat)
               b(1) = (  0.000000  0.189606 -0.100554 )
               b(2) = (  0.164203 -0.094803  0.100554 )
               b(3) = (  0.000000 -0.189606 -0.100554 )

     PseudoPot. # 1 for Nb read from file:
     ./Nb.pbe-nsp-van.UPF
     MD5 check sum: 0a22fc7fb0ba19a08ca5db297a5d2854
     Pseudo is Ultrasoft + core correction, Zval = 13.0
     Generated by new atomic code, or converted to UPF format
     Using radial grid of  887 points,  6 beta functions with:
                l(1) =   0
                l(2) =   0
                l(3) =   1
                l(4) =   1
                l(5) =   2
                l(6) =   2
     Q(r) pseudized with  6 coefficients,  rinner =    1.000   1.000   1.000
                                                       1.000   1.000

     PseudoPot. # 2 for Ti read from file:
     ./Ti.pbe-sp-van_ak.UPF
     MD5 check sum: f98fea3e8887528921fefa5636a534ca
     Pseudo is Ultrasoft, Zval = 12.0
     Generated by new atomic code, or converted to UPF format
     Using radial grid of  851 points,  6 beta functions with:
                l(1) =   0
                l(2) =   0
                l(3) =   1
                l(4) =   1
                l(5) =   2
                l(6) =   2
     Q(r) pseudized with  8 coefficients,  rinner =    1.000   1.000   1.000
                                                       1.000   1.000

     atomic species   valence    mass     pseudopotential
        Nb            13.00    92.90638     Nb( 1.00)
        Ti            12.00    47.86700     Ti( 1.00)

     No symmetry found
          (note:  2 additional sym.ops. were found but ignored
           their fractional translations are incommensurate with FFT grid)

   Cartesian axes

     site n.     atom                  positions (alat units)
         1           Ti  tau(   1) = (   6.0900085   0.0000000  -4.9724614  )
         2           Ti  tau(   2) = (   4.5675079   0.8790162  -2.4862307  )
         3           Ti  tau(   3) = (   9.1350127   0.0000000  -4.9724614  )
         4           Ti  tau(   4) = (   7.6125121   0.8790162  -2.4862307  )
         5           Ti  tau(   5) = (   9.1350127   0.0000000  -9.9449228  )
         6           Ti  tau(   6) = (   7.6125121   0.8790162  -7.4586921  )
         7           Ti  tau(   7) = (  12.1800169   0.0000000  -9.9449228  )
         8           Nb  tau(   8) = (  10.6575163   0.8790162  -7.4586921  )

     number of k points=   504  Marzari-Vanderbilt smearing, width (Ry)=  0.0200

     Number of k-points >= 100: set verbosity='high' to print them.

     Initial potential from superposition of free atoms

     starting charge   89.99696, renormalised to   97.00000
     Starting wfcs are   83 randomized atomic wfcs

     Self-consistent Calculation

     iteration #  1     ecut=    40.00 Ry     beta= 0.60
     Davidson diagonalization with overlap
     ethr =  1.00E-02,  avg # of iterations =  4.2

     total energy              =    -930.83064455 Ry
     Harris-Foulkes estimate   =    -936.84543132 Ry
     estimated scf accuracy    <       8.05355810 Ry

[...]

     iteration # 13     ecut=    40.00 Ry     beta= 0.60
     Davidson diagonalization with overlap
     c_bands:  1 eigenvalues not converged
     ethr =  1.14E-05,  avg # of iterations =  8.3

[...]

     End of self-consistent calculation

     Number of k-points >= 100: set verbosity='high' to print the bands.

     the Fermi energy is    11.9300 ev

!    total energy              =    -934.41013264 Ry
     Harris-Foulkes estimate   =    -934.41013264 Ry
     estimated scf accuracy    <          3.5E-11 Ry

     The total energy is the sum of the following terms:

     one-electron contribution =    -352.78716007 Ry
     hartree contribution      =     200.48104366 Ry
     xc contribution           =    -119.27505959 Ry
     ewald contribution        =    -662.82561140 Ry
     smearing contrib. (-TS)   =      -0.00334525 Ry

     convergence has been achieved in  38 iterations

     Forces acting on atoms (cartesian axes, Ry/au):

     atom    1 type  2   force =    -0.00089467   -0.00051777   -0.00000041
     atom    2 type  2   force =     0.00068631    0.00039934    0.00000040
     atom    3 type  2   force =     0.00071585    0.00041224    0.00160834
     atom    4 type  2   force =    -0.00063924    0.00120217   -0.00000038
     atom    5 type  2   force =     0.00071891    0.00041436   -0.00160823
     atom    6 type  2   force =     0.00071682   -0.00115701    0.00000035
     atom    7 type  2   force =    -0.00089843   -0.00051932   -0.00000045
     atom    8 type  1   force =    -0.00040555   -0.00023401    0.00000039

     Total force =     0.003639     Total SCF correction =     0.000004

     Computing stress (Cartesian axis) and pressure

          total   stress  (Ry/bohr**3)                   (kbar)     P= -134.44
  -0.00087514  -0.00000023   0.00000000       -128.74     -0.03      0.00
  -0.00000023  -0.00087486   0.00000001         -0.03   -128.70      0.00
   0.00000000   0.00000001  -0.00099165          0.00      0.00   -145.88

     BFGS Geometry Optimization

     number of scf cycles    =   1
     number of bfgs steps    =   0

     enthalpy new            =    -934.4101326427 Ry

     new trust radius        =       0.1627783009 bohr
     new conv_thr            =            1.0E-10 Ry

     new unit-cell volume =   1005.58925 a.u.^3 (   149.01295 Ang^3 )
     density =      4.76918 g/cm^3

CELL_PARAMETERS (alat=  1.88972599)
   4.467560942   2.579347430  -4.849186588
   5.956768286  -0.000035145   0.000000066
   1.489207236  -2.579384716  -4.849187756

ATOMIC_POSITIONS (angstrom)
Ti       5.956305152  -0.000304215  -4.849187351
Ti       4.467927836   0.859970563  -2.424593159
Ti       8.935522898   0.000159589  -4.848357110
Ti       7.445625873   0.860368542  -2.424593528
Ti       8.935524427   0.000159615  -9.699204253
Ti       7.446327724   0.859146350  -7.273780358
Ti      11.913071439  -0.000341232  -9.698374510
Nb      10.424130923   0.859606525  -7.273780300

     NEW-OLD atomic charge density approx. for the potential
     extrapolated charge   90.53824, renormalised to   97.00000

[...]

     enthalpy old            =    -934.4101326427 Ry
     enthalpy new            =    -934.4624339848 Ry

     CASE: enthalpy_new < enthalpy_old

[...]

     iteration # 28     ecut=    40.00 Ry     beta= 0.60
     Davidson diagonalization with overlap
<<<<<<< HEAD
     ethr =  2.72E-12,  avg # of iterations =  5.0

[...]

     WARNING: bfgs curvature condition failed, Theta= 0.962
     new trust radius        =       0.0065615594 bohr
     new conv_thr            =            1.0E-10 Ry

[...]

     Threshold (ethr) on eigenvalues was too large:
     Diagonalizing with lowered threshold

     Davidson diagonalization with overlap
     ethr =  4.70E-08,  avg # of iterations =  3.9

[...]

     WARNING: bfgs curvature condition failed, Theta= 0.981
     new trust radius        =       0.0013120941 bohr
     new conv_thr            =            6.1E-11 Ry

[...]

     CASE: enthalpy_new < enthalpy_old

     new trust radius        =       0.0002542140 bohr
     new conv_thr            =            2.5E-11 Ry

[...]

     CASE: enthalpy_new > enthalpy_old

     new trust radius        =       0.0000530346 bohr

     trust_radius < trust_radius_min

     resetting bfgs history

     new conv_thr            =            2.5E-11 Ry

[...]

     NEW-OLD atomic charge density approx. for the potential
     extrapolated charge   96.99984, renormalised to   97.00000

[...]

     number of scf cycles    =  14
     number of bfgs steps    =  12

     enthalpy old            =    -934.4804298385 Ry
     enthalpy new            =    -934.4804294429 Ry

     CASE: enthalpy_new > enthalpy_old

     new trust radius        =       0.0000564092 bohr

     trust_radius < trust_radius_min

     resetting bfgs history

     Message from routine bfgs:
     history already reset at previous step: stopping
     new conv_thr            =            2.5E-11 Ry

     new unit-cell volume =    940.21932 a.u.^3 (   139.32613 Ang^3 )
     density =      5.10076 g/cm^3

[...]

ATOMIC_POSITIONS (angstrom)
Ti       5.847974923  -0.001865144  -4.702154038
Ti       4.395096264   0.848411196  -2.351079587
Ti       8.769284473  -0.004344421  -4.681995241
Ti       7.303482063   0.855826877  -2.351075402
Ti       8.769279692  -0.004344206  -9.424468432
Ti       7.318533903   0.829800920  -7.053229735
Ti      11.696295823  -0.003528448  -9.404305829
Nb      10.230636548   0.839360236  -7.053230334

     NEW-OLD atomic charge density approx. for the potential

[...]

     Threshold (ethr) on eigenvalues was too large:
     Diagonalizing with lowered threshold

     Davidson diagonalization with overlap
     ethr =  1.68E-12,  avg # of iterations =  1.6

[...]

     bfgs converged in  15 scf cycles and  12 bfgs steps
     (criteria: energy <  1.0E-10 Ry, force <  1.0E-05Ry/Bohr, cell <  1.0E-03kbar)

     End of BFGS Geometry Optimization

     Final enthalpy =    -934.4804294428 Ry
Begin final coordinates
     new unit-cell volume =    940.21932 a.u.^3 (   139.32613 Ang^3 )
     density =      5.10076 g/cm^3

CELL_PARAMETERS (alat=  1.88972599)
   4.385520191   2.531980825  -4.702153837
   5.848321768  -0.001665364   0.000000014
   1.462801554  -2.533646282  -4.702153908

ATOMIC_POSITIONS (angstrom)
Ti       5.847974923  -0.001865144  -4.702154038
Ti       4.395096264   0.848411196  -2.351079587
Ti       8.769284473  -0.004344421  -4.681995241
Ti       7.303482063   0.855826877  -2.351075402
Ti       8.769279692  -0.004344206  -9.424468432
Ti       7.318533903   0.829800920  -7.053229735
Ti      11.696295823  -0.003528448  -9.404305829
Nb      10.230636548   0.839360236  -7.053230334
End final coordinates

     A final scf calculation at the relaxed structure.
     The G-vectors are recalculated for the final unit cell
     Results may differ from those at the preceding step.

     bravais-lattice index     =            0
     lattice parameter (alat)  =       1.8897  a.u.
     unit-cell volume          =     940.2193 (a.u.)^3
     number of atoms/cell      =            8
     number of atomic types    =            2
     number of electrons       =        97.00
     number of Kohn-Sham states=           59
     kinetic-energy cutoff     =      40.0000  Ry
     charge density cutoff     =     400.0000  Ry
     convergence threshold     =      2.5E-11
     mixing beta               =       0.6000
     number of iterations used =            8  plain     mixing
     Exchange-correlation      = SLA PW PBE PBE ( 1  4  3  4 0 0)

     celldm(1)=   1.889726  celldm(2)=   0.000000  celldm(3)=   0.000000
     celldm(4)=   0.000000  celldm(5)=   0.000000  celldm(6)=   0.000000

     crystal axes: (cart. coord. in units of alat)
               a(1) = (   4.385520   2.531981  -4.702154 )
               a(2) = (   5.848322  -0.001665   0.000000 )
               a(3) = (   1.462802  -2.533646  -4.702154 )

     reciprocal axes: (cart. coord. in units 2 pi/alat)
               b(1) = (  0.000056  0.197376 -0.106334 )
               b(2) = (  0.170961 -0.098640  0.106334 )
               b(3) = ( -0.000056 -0.197376 -0.106334 )

     PseudoPot. # 1 for Nb read from file:
     ./Nb.pbe-nsp-van.UPF
     MD5 check sum: 0a22fc7fb0ba19a08ca5db297a5d2854
     Pseudo is Ultrasoft + core correction, Zval = 13.0
     Generated by new atomic code, or converted to UPF format
     Using radial grid of  887 points,  6 beta functions with:
                l(1) =   0
                l(2) =   0
                l(3) =   1
                l(4) =   1
                l(5) =   2
                l(6) =   2
     Q(r) pseudized with  6 coefficients,  rinner =    1.000   1.000   1.000
                                                       1.000   1.000

     PseudoPot. # 2 for Ti read from file:
     ./Ti.pbe-sp-van_ak.UPF
     MD5 check sum: f98fea3e8887528921fefa5636a534ca
     Pseudo is Ultrasoft, Zval = 12.0
     Generated by new atomic code, or converted to UPF format
     Using radial grid of  851 points,  6 beta functions with:
                l(1) =   0
                l(2) =   0
                l(3) =   1
                l(4) =   1
                l(5) =   2
                l(6) =   2
     Q(r) pseudized with  8 coefficients,  rinner =    1.000   1.000   1.000
                                                       1.000   1.000

     atomic species   valence    mass     pseudopotential
        Nb            13.00    92.90638     Nb( 1.00)
        Ti            12.00    47.86700     Ti( 1.00)

     No symmetry found
          (note:  2 additional sym.ops. were found but ignored
           their fractional translations are incommensurate with FFT grid)

   Cartesian axes

     site n.     atom                  positions (alat units)
         1           Ti  tau(   1) = (   5.8479754  -0.0018651  -4.7021544  )
         2           Ti  tau(   2) = (   4.3950966   0.8484113  -2.3510798  )
         3           Ti  tau(   3) = (   8.7692851  -0.0043444  -4.6819956  )
         4           Ti  tau(   4) = (   7.3034826   0.8558269  -2.3510756  )
         5           Ti  tau(   5) = (   8.7692804  -0.0043442  -9.4244691  )
         6           Ti  tau(   6) = (   7.3185345   0.8298010  -7.0532303  )
         7           Ti  tau(   7) = (  11.6962967  -0.0035284  -9.4043065  )
         8           Nb  tau(   8) = (  10.2306373   0.8393603  -7.0532309  )

     number of k points=   504  Marzari-Vanderbilt smearing, width (Ry)=  0.0200

     Number of k-points >= 100: set verbosity='high' to print them.

     Initial potential from superposition of free atoms

     starting charge   89.99696, renormalised to   97.00000
     Starting wfcs are   83 randomized atomic wfcs

     Self-consistent Calculation

[...]

     iteration # 14     ecut=    40.00 Ry     beta= 0.60
     Davidson diagonalization with overlap
     c_bands:  1 eigenvalues not converged
     ethr =  5.07E-07,  avg # of iterations =  4.9

[...]

     total energy              =    -934.47200133 Ry
     Harris-Foulkes estimate   =    -934.47200133 Ry
     estimated scf accuracy    <          2.7E-11 Ry

     iteration # 34     ecut=    40.00 Ry     beta= 0.60
     Davidson diagonalization with overlap
     ethr =  1.00E-13,  avg # of iterations =  1.0

     End of self-consistent calculation

     Number of k-points >= 100: set verbosity='high' to print the bands.

     the Fermi energy is    14.0641 ev

!    total energy              =    -934.47200133 Ry
     Harris-Foulkes estimate   =    -934.47200133 Ry
     estimated scf accuracy    <          7.9E-12 Ry

     The total energy is the sum of the following terms:

     one-electron contribution =    -306.65807335 Ry
     hartree contribution      =     185.96244129 Ry
     xc contribution           =    -120.09722180 Ry
     ewald contribution        =    -693.67413857 Ry
     smearing contrib. (-TS)   =      -0.00500890 Ry

     convergence has been achieved in  34 iterations

     Forces acting on atoms (cartesian axes, Ry/au):

     atom    1 type  2   force =    -0.00014484   -0.00008395   -0.00000048
     atom    2 type  2   force =     0.00006988    0.00004070    0.00000017
     atom    3 type  2   force =    -0.00011513   -0.00006497   -0.00002999
     atom    4 type  2   force =     0.00014676    0.00000450   -0.00000112
     atom    5 type  2   force =    -0.00011213   -0.00006537    0.00003154
     atom    6 type  2   force =     0.00007254    0.00012172    0.00000038
     atom    7 type  2   force =    -0.00014467   -0.00008396   -0.00000065
     atom    8 type  1   force =     0.00022759    0.00013133    0.00000016

     Total force =     0.000458     Total SCF correction =     0.000004

     Computing stress (Cartesian axis) and pressure

          total   stress  (Ry/bohr**3)                   (kbar)     P=   -7.50
  -0.00004947  -0.00000077  -0.00000001         -7.28     -0.11     -0.00
  -0.00000077  -0.00004858  -0.00000001         -0.11     -7.15     -0.00
  -0.00000001  -0.00000001  -0.00005500         -0.00     -0.00     -8.09

     General routines

     Parallel routines

      30h

   This run was terminated on:   2: 7:18   9Feb2020

   JOB DONE.
>>>>>>> 916d4709b2147fd693e56315b3824d3945851775