     Program PWSCF v.6.0 (svn rev. 13079) starts on  8May2018 at 13: 8:31

     Current dimensions of program PWSCF are:
     Max number of different atomic species (ntypx) = 10
     Max number of k-points (npk) =  40000
     Max angular momentum in pseudopotentials (lmaxx) =  3

     Subspace diagonalization in iterative solution of the eigenvalue problem:
     a serial algorithm will be used

     bravais-lattice index     =            0
     lattice parameter (alat)  =       1.8897  a.u.
     unit-cell volume          =     808.3427 (a.u.)^3
     number of atoms/cell      =            6
     number of atomic types    =            2
     number of electrons       =        74.00
     number of Kohn-Sham states=           44
     kinetic-energy cutoff     =      40.0000  Ry
     charge density cutoff     =     400.0000  Ry
     convergence threshold     =      1.0E-10
     mixing beta               =       0.6000
     number of iterations used =            8  plain     mixing
     Exchange-correlation      = SLA  PW   PBE  PBE ( 1  4  3  4 0 0)
     nstep                     =           50

     celldm(1)=   1.889726  celldm(2)=   0.000000  celldm(3)=   0.000000
     celldm(4)=   0.000000  celldm(5)=   0.000000  celldm(6)=   0.000000

     crystal axes: (cart. coord. in units of alat)
               a(1) = (   6.090008   5.274102   0.000000 )
               a(2) = (  -7.612510  -2.637051   0.000000 )
               a(3) = (   0.000000   0.000000   4.972461 )

     reciprocal axes: (cart. coord. in units 2 pi/alat)
               b(1) = ( -0.109469  0.316010  0.000000 )
               b(2) = ( -0.218938  0.252808  0.000000 )
               b(3) = (  0.000000 -0.000000  0.201108 )

     PseudoPot. # 1 for Nb read from file:
     ./Nb.pbe-nsp-van.UPF
     MD5 check sum: 0a22fc7fb0ba19a08ca5db297a5d2854
     Pseudo is Ultrasoft + core correction, Zval = 13.0
     Generated by new atomic code, or converted to UPF format
     Using radial grid of  887 points,  6 beta functions with:
                l(1) =   0
                l(2) =   0
                l(3) =   1
                l(4) =   1
                l(5) =   2
                l(6) =   2
     Q(r) pseudized with  6 coefficients,  rinner =    1.000   1.000   1.000
                                                       1.000   1.000

     PseudoPot. # 2 for Ti read from file:
     ./Ti.pbe-sp-van_ak.UPF
     MD5 check sum: f98fea3e8887528921fefa5636a534ca
     Pseudo is Ultrasoft, Zval = 12.0
     Generated by new atomic code, or converted to UPF format
     Using radial grid of  851 points,  6 beta functions with:
                l(1) =   0
                l(2) =   0
                l(3) =   1
                l(4) =   1
                l(5) =   2
                l(6) =   2
     Q(r) pseudized with  8 coefficients,  rinner =    1.000   1.000   1.000
                                                       1.000   1.000

     atomic species   valence    mass     pseudopotential
        Nb            13.00    92.90638     Nb( 1.00)
        Ti            12.00    47.86700     Ti( 1.00)

      4 Sym. Ops. (no inversion) found

   Cartesian axes

     site n.     atom                  positions (alat units)
         1           Nb  tau(   1) = (  -1.5225021   2.6370512   4.9724614  )
         2           Ti  tau(   2) = (  -1.5225006   0.8790162   2.4862307  )
         3           Ti  tau(   3) = (   1.5225021   2.6370512   4.9724614  )
         4           Ti  tau(   4) = (  -6.0900069  -1.7580350   2.4862307  )
         5           Ti  tau(   5) = (  -3.0450042   0.0000000   4.9724614  )
         6           Nb  tau(   6) = (   3.0450058   3.5160674   2.4862307  )

     number of k points=   248  Marzari-Vanderbilt smearing, width (Ry)=  0.0200

     Number of k-points >= 100: set verbosity='high' to print them.

     Initial potential from superposition of free atoms

     starting charge   69.99436, renormalised to   74.00000
     Starting wfc are   66 randomized atomic wfcs

     Self-consistent Calculation

     iteration #  1     ecut=    40.00 Ry     beta=0.60
     Davidson diagonalization with overlap
     ethr =  1.00E-02,  avg # of iterations =  3.3

     total energy              =    -691.47542849 Ry
     Harris-Foulkes estimate   =    -704.52346734 Ry
     estimated scf accuracy    <      16.39876664 Ry

[...]

     iteration # 16     ecut=    40.00 Ry     beta=0.60
     Davidson diagonalization with overlap
     c_bands:  1 eigenvalues not converged
     c_bands:  1 eigenvalues not converged
     c_bands:  1 eigenvalues not converged
     c_bands:  2 eigenvalues not converged
     ethr =  2.22E-05,  avg # of iterations =  7.8

[...]

     End of self-consistent calculation

     Number of k-points >= 100: set verbosity='high' to print the bands.

     the Fermi energy is    12.9907 ev

!    total energy              =    -702.38490643 Ry
     Harris-Foulkes estimate   =    -702.38490643 Ry
     estimated scf accuracy    <          5.5E-11 Ry

     The total energy is the sum of the following terms:

     one-electron contribution =    -231.17267930 Ry
     hartree contribution      =     137.66139696 Ry
     xc contribution           =     -94.32982792 Ry
     ewald contribution        =    -514.53750162 Ry
     smearing contrib. (-TS)   =      -0.00629455 Ry

     convergence has been achieved in  33 iterations

     Forces acting on atoms (Ry/au):

     atom    1 type  1   force =     0.00090231    0.00052095    0.00000000
     atom    2 type  2   force =    -0.00161513   -0.00093250    0.00000000
     atom    3 type  2   force =    -0.00122537   -0.00070747    0.00000000
     atom    4 type  2   force =     0.00116543    0.00067286    0.00000000
     atom    5 type  2   force =     0.00168602    0.00097342    0.00000000
     atom    6 type  1   force =    -0.00091326   -0.00052727    0.00000000

     Total force =     0.003644     Total SCF correction =     0.000015

     entering subroutine stress ...

          total   stress  (Ry/bohr**3)                   (kbar)     P= -130.98
  -0.00089040   0.00001352   0.00000000       -130.98      1.99      0.00
   0.00001352  -0.00090601   0.00000000          1.99   -133.28      0.00
   0.00000000   0.00000000  -0.00087481          0.00      0.00   -128.69

     BFGS Geometry Optimization

     number of scf cycles    =   1
     number of bfgs steps    =   0

     enthalpy new            =    -702.3849064256 Ry

     new trust radius        =       0.1288091921 bohr
     new conv_thr            =            1.0E-10 Ry

     new unit-cell volume =    755.55389 a.u.^3 (   111.96153 Ang^3 )

CELL_PARAMETERS (alat=  1.88972599)
   5.956227627   5.156701128   0.000000000
  -7.443947668  -2.579894242   0.000000000
   0.000000000   0.000000000   4.863711935

ATOMIC_POSITIONS (angstrom)
Nb      -1.487253097   2.577076476   4.863711935
Ti      -1.489148548   0.858109162   2.431855968
Ti       1.488868398   2.577469889   4.863711935
Ti      -5.954434702  -1.719925186   2.431855968
Ti      -2.976350053  -0.000525371   4.863711935
Nb       2.977939772   3.437183991   2.431855968

     NEW-OLD atomic charge density approx. for the potential
     extrapolated charge   69.10965, renormalised to   74.00000

[...]

     enthalpy old            =    -702.3849064256 Ry
     enthalpy new            =    -702.4208683931 Ry

     CASE: enthalpy_new < enthalpy_old

[...]

     Threshold (ethr) on eigenvalues was too large:
     Diagonalizing with lowered threshold

     Davidson diagonalization with overlap
     ethr =  9.25E-08,  avg # of iterations =  2.5

[...]

     WARNING: bfgs curvature condition failed, Theta= 0.902
     new trust radius        =       0.0071463625 bohr
     new conv_thr            =            1.0E-10 Ry

[...]

     WARNING: bfgs curvature condition failed, Theta= 0.995
     new trust radius        =       0.0421133231 bohr
     new conv_thr            =            1.0E-10 Ry

[...]

     Total force =     0.000007     Total SCF correction =     0.000004
     SCF correction compared to forces is large: reduce conv_thr to get better values

[...]

     small trust_radius: resetting bfgs history

[...]

     number of scf cycles    =  30
     number of bfgs steps    =  29

     enthalpy old            =    -702.4417739749 Ry
     enthalpy new            =    -702.4417739752 Ry

     CASE: enthalpy_new < enthalpy_old

     Message from routine bfgs:
     history already reset at previous step: stopping
     small trust_radius: resetting bfgs history

     new trust radius        =       0.0000080215 bohr
     new conv_thr            =            1.0E-12 Ry

     new unit-cell volume =    710.77268 a.u.^3 (   105.32564 Ang^3 )

[...]

ATOMIC_POSITIONS (angstrom)
Nb      -1.241503075   2.509878099   4.749678757
Ti      -1.602858060   0.687917948   2.374839378
Ti       1.731512673   2.613019513   4.749678757
Ti      -6.183360871  -1.956636764   2.374839378
Ti      -2.848570053  -0.031292663   4.749678757
Nb       2.963793196   3.324475461   2.374839378

     NEW-OLD atomic charge density approx. for the potential
     extrapolated charge   74.00007, renormalised to   74.00000

[...]

     Threshold (ethr) on eigenvalues was too large:
     Diagonalizing with lowered threshold

     Davidson diagonalization with overlap
     ethr =  6.97E-13,  avg # of iterations =  3.7

[...]

     Total force =     0.000006     Total SCF correction =     0.000003
     SCF correction compared to forces is large: reduce conv_thr to get better values

[...]

     bfgs converged in  31 scf cycles and  30 bfgs steps
     (criteria: energy <  1.0E-10, force <  1.0E-05, cell <  1.0E-03)

     End of BFGS Geometry Optimization

     Final enthalpy =    -702.4417739752 Ry
Begin final coordinates
     new unit-cell volume =    710.77268 a.u.^3 (   105.32564 Ang^3 )

CELL_PARAMETERS (alat=  1.88972599)
   6.173939112   5.177855799   0.000000000
  -7.571123896  -2.757860571   0.000000000
   0.000000000   0.000000000   4.749678757

ATOMIC_POSITIONS (angstrom)
Nb      -1.241503075   2.509878099   4.749678757
Ti      -1.602858060   0.687917948   2.374839378
Ti       1.731512673   2.613019513   4.749678757
Ti      -6.183360871  -1.956636764   2.374839378
Ti      -2.848570053  -0.031292663   4.749678757
Nb       2.963793196   3.324475461   2.374839378
End final coordinates

     A final scf calculation at the relaxed structure.
     The G-vectors are recalculated for the final unit cell
     Results may differ from those at the preceding step.

   Info: using nr1, nr2, nr3 values from input

   Info: using nr1, nr2, nr3 values from input

     bravais-lattice index     =            0
     lattice parameter (alat)  =       1.8897  a.u.
     unit-cell volume          =     710.7727 (a.u.)^3
     number of atoms/cell      =            6
     number of atomic types    =            2
     number of electrons       =        74.00
     number of Kohn-Sham states=           44
     kinetic-energy cutoff     =      40.0000  Ry
     charge density cutoff     =     400.0000  Ry
     convergence threshold     =      1.0E-12
     mixing beta               =       0.6000
     number of iterations used =            8  plain     mixing
     Exchange-correlation      = SLA  PW   PBE  PBE ( 1  4  3  4 0 0)

     celldm(1)=   1.889726  celldm(2)=   0.000000  celldm(3)=   0.000000
     celldm(4)=   0.000000  celldm(5)=   0.000000  celldm(6)=   0.000000

     crystal axes: (cart. coord. in units of alat)
               a(1) = (   6.173939   5.177856   0.000000 )
               a(2) = (  -7.571124  -2.757861   0.000000 )
               a(3) = (   0.000000   0.000000   4.749679 )

     reciprocal axes: (cart. coord. in units 2 pi/alat)
               b(1) = ( -0.124366  0.341421  0.000000 )
               b(2) = ( -0.233496  0.278415  0.000000 )
               b(3) = (  0.000000 -0.000000  0.210541 )

     PseudoPot. # 1 for Nb read from file:
     ./Nb.pbe-nsp-van.UPF
     MD5 check sum: 0a22fc7fb0ba19a08ca5db297a5d2854
     Pseudo is Ultrasoft + core correction, Zval = 13.0
     Generated by new atomic code, or converted to UPF format
     Using radial grid of  887 points,  6 beta functions with:
                l(1) =   0
                l(2) =   0
                l(3) =   1
                l(4) =   1
                l(5) =   2
                l(6) =   2
     Q(r) pseudized with  6 coefficients,  rinner =    1.000   1.000   1.000
                                                       1.000   1.000

     PseudoPot. # 2 for Ti read from file:
     ./Ti.pbe-sp-van_ak.UPF
     MD5 check sum: f98fea3e8887528921fefa5636a534ca
     Pseudo is Ultrasoft, Zval = 12.0
     Generated by new atomic code, or converted to UPF format
     Using radial grid of  851 points,  6 beta functions with:
                l(1) =   0
                l(2) =   0
                l(3) =   1
                l(4) =   1
                l(5) =   2
                l(6) =   2
     Q(r) pseudized with  8 coefficients,  rinner =    1.000   1.000   1.000
                                                       1.000   1.000

     atomic species   valence    mass     pseudopotential
        Nb            13.00    92.90638     Nb( 1.00)
        Ti            12.00    47.86700     Ti( 1.00)

      4 Sym. Ops. (no inversion) found

   Cartesian axes

     site n.     atom                  positions (alat units)
         1           Nb  tau(   1) = (  -1.2415032   2.5098783   4.7496791  )
         2           Ti  tau(   2) = (  -1.6028582   0.6879180   2.3748396  )
         3           Ti  tau(   3) = (   1.7315128   2.6130197   4.7496791  )
         4           Ti  tau(   4) = (  -6.1833613  -1.9566369   2.3748396  )
         5           Ti  tau(   5) = (  -2.8485703  -0.0312927   4.7496791  )
         6           Nb  tau(   6) = (   2.9637934   3.3244757   2.3748396  )

     number of k points=   248  Marzari-Vanderbilt smearing, width (Ry)=  0.0200

     Number of k-points >= 100: set verbosity='high' to print them.

     Initial potential from superposition of free atoms

     starting charge   69.99436, renormalised to   74.00000
     Starting wfc are   66 randomized atomic wfcs

     Self-consistent Calculation

[...]

     iteration # 14     ecut=    40.00 Ry     beta=0.60
     Davidson diagonalization with overlap
     c_bands:  1 eigenvalues not converged
     c_bands:  1 eigenvalues not converged
     c_bands:  1 eigenvalues not converged
     ethr =  1.52E-07,  avg # of iterations =  6.0

[...]

     total energy              =    -702.43719319 Ry
     Harris-Foulkes estimate   =    -702.43719319 Ry
     estimated scf accuracy    <          3.4E-12 Ry

     iteration # 28     ecut=    40.00 Ry     beta=0.60
     Davidson diagonalization with overlap
     ethr =  1.00E-13,  avg # of iterations =  1.0

     End of self-consistent calculation

     Number of k-points >= 100: set verbosity='high' to print the bands.

     the Fermi energy is    14.9838 ev

!    total energy              =    -702.43719319 Ry
     Harris-Foulkes estimate   =    -702.43719319 Ry
     estimated scf accuracy    <          7.9E-13 Ry

     The total energy is the sum of the following terms:

     one-electron contribution =    -198.54182122 Ry
     hartree contribution      =     127.80573796 Ry
     xc contribution           =     -94.98121086 Ry
     ewald contribution        =    -536.71909417 Ry
     smearing contrib. (-TS)   =      -0.00080491 Ry

     convergence has been achieved in  28 iterations

     Forces acting on atoms (Ry/au):

     atom    1 type  1   force =     0.00004136    0.00002388    0.00000000
     atom    2 type  2   force =     0.00001918    0.00001108    0.00000000
     atom    3 type  2   force =    -0.00002289   -0.00001321    0.00000000
     atom    4 type  2   force =     0.00005099    0.00002944    0.00000000
     atom    5 type  2   force =    -0.00004260   -0.00002459    0.00000000
     atom    6 type  1   force =    -0.00004606   -0.00002659    0.00000000

     Total force =     0.000110     Total SCF correction =     0.000001

     entering subroutine stress ...

          total   stress  (Ry/bohr**3)                   (kbar)     P=   -4.73
  -0.00002427   0.00001168   0.00000000         -3.57      1.72      0.00
   0.00001168  -0.00003775   0.00000000          1.72     -5.55      0.00
   0.00000000   0.00000000  -0.00003437          0.00      0.00     -5.06

     General routines

     Parallel routines

   This run was terminated on:   7:54:38   9May2018

   JOB DONE.