     Program PWSCF v.6.3MaX starts on 31Jan2020 at 12: 3:51

     R & G space division:  proc/nbgrp/npool/nimage =       4
     Waiting for input...
     Reading input from standard input

     Current dimensions of program PWSCF are:
     Max number of different atomic species (ntypx) = 10
     Max number of k-points (npk) =  40000
     Max angular momentum in pseudopotentials (lmaxx) =  3
     Message from routine iosys:
     minimal I/O required, wf_collect reset to FALSE

     Subspace diagonalization in iterative solution of the eigenvalue problem:
     a serial algorithm will be used

     bravais-lattice index     =            0
     lattice parameter (alat)  =       1.8897  a.u.
     unit-cell volume          =     733.3418 (a.u.)^3
     number of atoms/cell      =            5
     number of atomic types    =            2
     number of electrons       =        62.00
     number of Kohn-Sham states=           37
     kinetic-energy cutoff     =      50.0000  Ry
     charge density cutoff     =     500.0000  Ry
     convergence threshold     =      1.0E-10
     mixing beta               =       0.6000
     number of iterations used =            8  plain     mixing
     Exchange-correlation      = SLA PW PBE PBE ( 1  4  3  4 0 0)
     nstep                     =           50

     celldm(1)=   1.889726  celldm(2)=   0.000000  celldm(3)=   0.000000
     celldm(4)=   0.000000  celldm(5)=   0.000000  celldm(6)=   0.000000

     crystal axes: (cart. coord. in units of alat)
               a(1) = (   5.274095   1.758031   5.274095 )
               a(2) = (   1.758031   5.274095   5.274095 )
               a(3) = (  -1.758031  -1.758031   1.758031 )

     reciprocal axes: (cart. coord. in units 2 pi/alat)
               b(1) = (  0.170645 -0.113764  0.056882 )
               b(2) = ( -0.113764  0.170645  0.056882 )
               b(3) = ( -0.170645 -0.170645  0.227527 )

     PseudoPot. # 1 for Nb read from file:
     ./Nb.pbe-nsp-van.UPF
     MD5 check sum: 0a22fc7fb0ba19a08ca5db297a5d2854
     Pseudo is Ultrasoft + core correction, Zval = 13.0
     Generated by new atomic code, or converted to UPF format
     Using radial grid of  887 points,  6 beta functions with:
                l(1) =   0
                l(2) =   0
                l(3) =   1
                l(4) =   1
                l(5) =   2
                l(6) =   2
     Q(r) pseudized with  6 coefficients,  rinner =    1.000   1.000   1.000
                                                       1.000   1.000

     PseudoPot. # 2 for Ti read from file:
     ./Ti.pbe-sp-van_ak.UPF
     MD5 check sum: f98fea3e8887528921fefa5636a534ca
     Pseudo is Ultrasoft, Zval = 12.0
     Generated by new atomic code, or converted to UPF format
     Using radial grid of  851 points,  6 beta functions with:
                l(1) =   0
                l(2) =   0
                l(3) =   1
                l(4) =   1
                l(5) =   2
                l(6) =   2
     Q(r) pseudized with  8 coefficients,  rinner =    1.000   1.000   1.000
                                                       1.000   1.000

     atomic species   valence    mass     pseudopotential
        Nb            13.00    92.90638     Nb( 1.00)
        Ti            12.00    47.86700     Ti( 1.00)

      2 Sym. Ops. (no inversion) found
          (note:  2 additional sym.ops. were found but ignored
           their fractional translations are incommensurate with FFT grid)

   Cartesian axes

     site n.     atom                  positions (alat units)
         1           Ti  tau(   1) = (   0.0000000   0.0000000   3.5160633  )
         2           Ti  tau(   2) = (   1.7580316   1.7580316   5.2740949  )
         3           Ti  tau(   3) = (   3.5160633   3.5160633   7.0321265  )
         4           Nb  tau(   4) = (   5.2740949   5.2740949   8.7901582  )
         5           Nb  tau(   5) = (   5.2740949   5.2740949  12.3062214  )

     number of k points=   500  Marzari-Vanderbilt smearing, width (Ry)=  0.0200

     Number of k-points >= 100: set verbosity='high' to print them.

     Initial potential from superposition of free atoms

     starting charge   58.99440, renormalised to   62.00000
     Starting wfcs are   56 randomized atomic wfcs

     Self-consistent Calculation

     iteration #  1     ecut=    50.00 Ry     beta= 0.60
     Davidson diagonalization with overlap
     ethr =  1.00E-02,  avg # of iterations =  3.4

     total energy              =    -569.51747779 Ry
     Harris-Foulkes estimate   =    -588.23795672 Ry
     estimated scf accuracy    <      23.39512786 Ry

[...]

     iteration # 15     ecut=    50.00 Ry     beta= 0.60
     Davidson diagonalization with overlap
     c_bands:  1 eigenvalues not converged
     ethr =  1.26E-05,  avg # of iterations =  6.8

[...]

     End of self-consistent calculation

     Number of k-points >= 100: set verbosity='high' to print the bands.

     the Fermi energy is    11.7252 ev

!    total energy              =    -585.69586572 Ry
     Harris-Foulkes estimate   =    -585.69586572 Ry
     estimated scf accuracy    <          9.3E-11 Ry

     The total energy is the sum of the following terms:

     one-electron contribution =    -201.79165538 Ry
     hartree contribution      =     117.06946841 Ry
     xc contribution           =     -79.61980059 Ry
     ewald contribution        =    -421.35330293 Ry
     smearing contrib. (-TS)   =      -0.00057523 Ry

     convergence has been achieved in  30 iterations

     Forces acting on atoms (cartesian axes, Ry/au):

     atom    1 type  2   force =    -0.00515433   -0.00515433    0.00283586
     atom    2 type  2   force =    -0.00000161   -0.00000161   -0.00000343
     atom    3 type  2   force =     0.00515375    0.00515375   -0.00283677
     atom    4 type  1   force =     0.00693451    0.00693451    0.00392947
     atom    5 type  1   force =    -0.00693232   -0.00693232   -0.00392513

     Total force =     0.018587     Total SCF correction =     0.000020

     Computing stress (Cartesian axis) and pressure

          total   stress  (Ry/bohr**3)                   (kbar)     P= -193.72
  -0.00131784  -0.00003094   0.00000353       -193.86     -4.55      0.52
  -0.00003094  -0.00131784   0.00000353         -4.55   -193.86      0.52
   0.00000353   0.00000353  -0.00131489          0.52      0.52   -193.43

     BFGS Geometry Optimization

     number of scf cycles    =   1
     number of bfgs steps    =   0

     enthalpy new            =    -585.6958657162 Ry

     new trust radius        =       0.1784867082 bohr
     new conv_thr            =            1.0E-10 Ry

     new unit-cell volume =    663.27184 a.u.^3 (    98.28675 Ang^3 )
     density =      5.56539 g/cm^3

CELL_PARAMETERS (alat=  1.88972599)
   5.099440278   1.696497825   5.101343587
   1.696497825   5.099440278   5.101343587
  -1.698596796  -1.698596796   1.699930890

ATOMIC_POSITIONS (angstrom)
Ti      -0.002325268  -0.002325268   3.401933008
Ti       1.699216340   1.699216340   5.101031650
Ti       3.400759295   3.400759295   6.800133334
Nb       5.100577154   5.100577154   8.504147595
Nb       5.093796397   5.093796397  11.900608604

     NEW-OLD atomic charge density approx. for the potential
     extrapolated charge   55.76766, renormalised to   62.00000

[...]

     enthalpy old            =    -585.6958657162 Ry
     enthalpy new            =    -585.7738254297 Ry

     CASE: enthalpy_new < enthalpy_old

[...]

     Threshold (ethr) on eigenvalues was too large:
     Diagonalizing with lowered threshold

     Davidson diagonalization with overlap
     ethr =  7.84E-08,  avg # of iterations =  1.8

[...]

     small trust_radius: resetting bfgs history

[...]

     number of scf cycles    =  30
     number of bfgs steps    =  29

     enthalpy old            =    -585.8123214753 Ry
     enthalpy new            =    -585.8123214775 Ry

     CASE: enthalpy_new < enthalpy_old

     Message from routine bfgs:
     history already reset at previous step: stopping
     small trust_radius: resetting bfgs history

     new trust radius        =       0.0000129117 bohr
     new conv_thr            =            1.0E-12 Ry

     new unit-cell volume =    591.03250 a.u.^3 (    87.58198 Ang^3 )
     density =      6.24563 g/cm^3

[...]

ATOMIC_POSITIONS (angstrom)
Ti      -0.109031191  -0.109031191   3.291026047
Ti       1.608059550   1.608059550   4.855795415
Ti       3.325152105   3.325152105   6.420571539
Nb       4.919506425   4.919506425   8.047914419
Nb       4.789459483   4.789459483  11.334776075

     NEW-OLD atomic charge density approx. for the potential
     extrapolated charge   62.00034, renormalised to   62.00000

[...]

     Threshold (ethr) on eigenvalues was too large:
     Diagonalizing with lowered threshold

     Davidson diagonalization with overlap
     ethr =  1.52E-11,  avg # of iterations =  1.9

[...]

     Total force =     0.000015     Total SCF correction =     0.000003
     SCF correction compared to forces is large: reduce conv_thr to get better values

[...]

     bfgs converged in  31 scf cycles and  30 bfgs steps
     (criteria: energy <  1.0E-10 Ry, force <  1.0E-05Ry/Bohr, cell <  1.0E-03kbar)

     End of BFGS Geometry Optimization

     Final enthalpy =    -585.8123214782 Ry
Begin final coordinates
     new unit-cell volume =    591.03250 a.u.^3 (    87.58198 Ang^3 )
     density =      6.24563 g/cm^3

CELL_PARAMETERS (alat=  1.88972599)
   4.891026681   1.601811598   4.835544021
   1.601811598   4.891026681   4.835544021
  -1.648456154  -1.648456154   1.645606456

ATOMIC_POSITIONS (angstrom)
Ti      -0.109031191  -0.109031191   3.291026047
Ti       1.608059550   1.608059550   4.855795415
Ti       3.325152105   3.325152105   6.420571539
Nb       4.919506425   4.919506425   8.047914419
Nb       4.789459483   4.789459483  11.334776075
End final coordinates

     A final scf calculation at the relaxed structure.
     The G-vectors are recalculated for the final unit cell
     Results may differ from those at the preceding step.

     bravais-lattice index     =            0
     lattice parameter (alat)  =       1.8897  a.u.
     unit-cell volume          =     591.0325 (a.u.)^3
     number of atoms/cell      =            5
     number of atomic types    =            2
     number of electrons       =        62.00
     number of Kohn-Sham states=           37
     kinetic-energy cutoff     =      50.0000  Ry
     charge density cutoff     =     500.0000  Ry
     convergence threshold     =      1.0E-12
     mixing beta               =       0.6000
     number of iterations used =            8  plain     mixing
     Exchange-correlation      = SLA PW PBE PBE ( 1  4  3  4 0 0)

     celldm(1)=   1.889726  celldm(2)=   0.000000  celldm(3)=   0.000000
     celldm(4)=   0.000000  celldm(5)=   0.000000  celldm(6)=   0.000000

     crystal axes: (cart. coord. in units of alat)
               a(1) = (   4.891027   1.601812   4.835544 )
               a(2) = (   1.601812   4.891027   4.835544 )
               a(3) = (  -1.648456  -1.648456   1.645606 )

     reciprocal axes: (cart. coord. in units 2 pi/alat)
               b(1) = (  0.182913 -0.121111  0.061909 )
               b(2) = ( -0.121111  0.182913  0.061909 )
               b(3) = ( -0.181603 -0.181603  0.243844 )

     PseudoPot. # 1 for Nb read from file:
     ./Nb.pbe-nsp-van.UPF
     MD5 check sum: 0a22fc7fb0ba19a08ca5db297a5d2854
     Pseudo is Ultrasoft + core correction, Zval = 13.0
     Generated by new atomic code, or converted to UPF format
     Using radial grid of  887 points,  6 beta functions with:
                l(1) =   0
                l(2) =   0
                l(3) =   1
                l(4) =   1
                l(5) =   2
                l(6) =   2
     Q(r) pseudized with  6 coefficients,  rinner =    1.000   1.000   1.000
                                                       1.000   1.000

     PseudoPot. # 2 for Ti read from file:
     ./Ti.pbe-sp-van_ak.UPF
     MD5 check sum: f98fea3e8887528921fefa5636a534ca
     Pseudo is Ultrasoft, Zval = 12.0
     Generated by new atomic code, or converted to UPF format
     Using radial grid of  851 points,  6 beta functions with:
                l(1) =   0
                l(2) =   0
                l(3) =   1
                l(4) =   1
                l(5) =   2
                l(6) =   2
     Q(r) pseudized with  8 coefficients,  rinner =    1.000   1.000   1.000
                                                       1.000   1.000

     atomic species   valence    mass     pseudopotential
        Nb            13.00    92.90638     Nb( 1.00)
        Ti            12.00    47.86700     Ti( 1.00)

      2 Sym. Ops. (no inversion) found
          (note:  2 additional sym.ops. were found but ignored
           their fractional translations are incommensurate with FFT grid)

   Cartesian axes

     site n.     atom                  positions (alat units)
         1           Ti  tau(   1) = (  -0.1090312  -0.1090312   3.2910263  )
         2           Ti  tau(   2) = (   1.6080597   1.6080597   4.8557958  )
         3           Ti  tau(   3) = (   3.3251524   3.3251524   6.4205720  )
         4           Nb  tau(   4) = (   4.9195068   4.9195068   8.0479150  )
         5           Nb  tau(   5) = (   4.7894598   4.7894598  11.3347769  )

     number of k points=   500  Marzari-Vanderbilt smearing, width (Ry)=  0.0200

     Number of k-points >= 100: set verbosity='high' to print them.

     Initial potential from superposition of free atoms

     starting charge   58.99440, renormalised to   62.00000
     Starting wfcs are   56 randomized atomic wfcs

     Self-consistent Calculation

[...]

     iteration # 11     ecut=    50.00 Ry     beta= 0.60
     Davidson diagonalization with overlap
     c_bands:  1 eigenvalues not converged
     c_bands:  1 eigenvalues not converged
     c_bands:  1 eigenvalues not converged
     c_bands:  1 eigenvalues not converged
     ethr =  1.66E-06,  avg # of iterations =  5.0

[...]

     total energy              =    -585.81177731 Ry
     Harris-Foulkes estimate   =    -585.81177731 Ry
     estimated scf accuracy    <          7.5E-12 Ry

     iteration # 26     ecut=    50.00 Ry     beta= 0.60
     Davidson diagonalization with overlap
     ethr =  1.00E-13,  avg # of iterations =  1.0

     End of self-consistent calculation

     Number of k-points >= 100: set verbosity='high' to print the bands.

     the Fermi energy is    15.2027 ev

!    total energy              =    -585.81177731 Ry
     Harris-Foulkes estimate   =    -585.81177731 Ry
     estimated scf accuracy    <          3.7E-13 Ry

     The total energy is the sum of the following terms:

     one-electron contribution =    -156.03884453 Ry
     hartree contribution      =     103.18429122 Ry
     xc contribution           =     -80.50692290 Ry
     ewald contribution        =    -452.45058919 Ry
     smearing contrib. (-TS)   =       0.00028809 Ry

     convergence has been achieved in  26 iterations

     Forces acting on atoms (cartesian axes, Ry/au):

     atom    1 type  2   force =    -0.00000448   -0.00000448   -0.00000396
     atom    2 type  2   force =    -0.00000172   -0.00000172   -0.00000365
     atom    3 type  2   force =     0.00000593    0.00000593    0.00000761
     atom    4 type  1   force =     0.00000714    0.00000714    0.00001103
     atom    5 type  1   force =    -0.00000687   -0.00000687   -0.00001103

     Total force =     0.000025     Total SCF correction =     0.000002

     Computing stress (Cartesian axis) and pressure

          total   stress  (Ry/bohr**3)                   (kbar)     P=   -0.62
  -0.00000436   0.00000002   0.00000030         -0.64      0.00      0.04
   0.00000002  -0.00000436   0.00000030          0.00     -0.64      0.04
   0.00000030   0.00000030  -0.00000392          0.04      0.04     -0.58

     General routines

     Parallel routines

      26h

   This run was terminated on:   2:30:45   1Feb2020

   JOB DONE.