     Program PWSCF v.6.0 (svn rev. 13079) starts on 26Apr2018 at 10:54:47

     Current dimensions of program PWSCF are:
     Max number of different atomic species (ntypx) = 10
     Max number of k-points (npk) =  40000
     Max angular momentum in pseudopotentials (lmaxx) =  3

     Subspace diagonalization in iterative solution of the eigenvalue problem:
     a serial algorithm will be used

     bravais-lattice index     =            0
     lattice parameter (alat)  =       1.8897  a.u.
     unit-cell volume          =     146.6684 (a.u.)^3
     number of atoms/cell      =            1
     number of atomic types    =            1
     number of electrons       =        13.00
     number of Kohn-Sham states=           11
     kinetic-energy cutoff     =      50.0000  Ry
     charge density cutoff     =     500.0000  Ry
     convergence threshold     =      1.0E-10
     mixing beta               =       0.6000
     number of iterations used =            8  plain     mixing
     Exchange-correlation      =  SLA  PW   PBE  PBE ( 1  4  3  4 0 0)
     nstep                     =           50

     celldm(1)=   1.889726  celldm(2)=   0.000000  celldm(3)=   0.000000
     celldm(4)=   0.000000  celldm(5)=   0.000000  celldm(6)=   0.000000

     crystal axes: (cart. coord. in units of alat)
               a(1) = (   1.758031  -1.758031   1.758031 )
               a(2) = (   1.758031   1.758031  -1.758031 )
               a(3) = (  -1.758031   1.758031   1.758031 )

     reciprocal axes: (cart. coord. in units 2 pi/alat)
               b(1) = (  0.284409  0.000000  0.284409 )
               b(2) = (  0.284409  0.284409  0.000000 )
               b(3) = (  0.000000  0.284409  0.284409 )

     PseudoPot. # 1 for Nb read from file:
     ./Nb.pbe-nsp-van.UPF
     MD5 check sum: 0a22fc7fb0ba19a08ca5db297a5d2854
     Pseudo is Ultrasoft + core correction, Zval = 13.0
     Generated by new atomic code, or converted to UPF format
     Using radial grid of  887 points,  6 beta functions with:
                l(1) =   0
                l(2) =   0
                l(3) =   1
                l(4) =   1
                l(5) =   2
                l(6) =   2
     Q(r) pseudized with  6 coefficients,  rinner =    1.000   1.000   1.000
                                                       1.000   1.000

     atomic species   valence    mass     pseudopotential
        Nb            13.00    92.90638     Nb( 1.00)

     48 Sym. Ops., with inversion, found

   Cartesian axes

     site n.     atom                  positions (alat units)
         1           Nb  tau(   1) = (   1.7580316   1.7580316   1.7580316  )

     number of k points=   256  Marzari-Vanderbilt smearing, width (Ry)=  0.0200

     Number of k-points >= 100: set verbosity='high' to print them.

     Initial potential from superposition of free atoms

     starting charge   12.99727, renormalised to   13.00000
     Starting wfc are   13 randomized atomic wfcs

     Self-consistent Calculation

     iteration #  1     ecut=    50.00 Ry     beta=0.60
     Davidson diagonalization with overlap
     ethr =  1.00E-02,  avg # of iterations =  2.9

     Threshold (ethr) on eigenvalues was too large:
     Diagonalizing with lowered threshold

     Davidson diagonalization with overlap
     ethr =  9.71E-04,  avg # of iterations =  1.0

     total energy              =    -117.88373219 Ry
     Harris-Foulkes estimate   =    -117.95670864 Ry
     estimated scf accuracy    <       0.12885072 Ry

[...]

     End of self-consistent calculation

     Number of k-points >= 100: set verbosity='high' to print the bands.

     the Fermi energy is    14.3898 ev

!    total energy              =    -117.91171313 Ry
     Harris-Foulkes estimate   =    -117.91171313 Ry
     estimated scf accuracy    <          7.1E-12 Ry

     The total energy is the sum of the following terms:

     one-electron contribution =     -24.37403224 Ry
     hartree contribution      =      17.27779638 Ry
     xc contribution           =     -18.25188420 Ry
     ewald contribution        =     -92.56379168 Ry
     smearing contrib. (-TS)   =       0.00019861 Ry

     convergence has been achieved in   8 iterations

     Forces acting on atoms (Ry/au):

     atom    1 type  1   force =     0.00000000    0.00000000    0.00000000

     Total force =     0.000000     Total SCF correction =     0.000000

     entering subroutine stress ...

          total   stress  (Ry/bohr**3)                   (kbar)     P= -221.02
  -0.00150248  -0.00000000  -0.00000000       -221.02     -0.00     -0.00
  -0.00000000  -0.00150248  -0.00000000         -0.00   -221.02     -0.00
  -0.00000000  -0.00000000  -0.00150248         -0.00     -0.00   -221.02

     BFGS Geometry Optimization

     number of scf cycles    =   1
     number of bfgs steps    =   0

     enthalpy new            =    -117.9117131302 Ry

     new trust radius        =       0.0909804558 bohr
     new conv_thr            =            1.0E-10 Ry

     new unit-cell volume =    130.75389 a.u.^3 (    19.37573 Ang^3 )

CELL_PARAMETERS (alat=  1.88972599)
   1.691996141  -1.691996141   1.691996141
   1.691996141   1.691996141  -1.691996141
  -1.691996141   1.691996141   1.691996141

ATOMIC_POSITIONS (angstrom)
Nb       1.691996141   1.691996141   1.691996141

     NEW-OLD atomic charge density approx. for the potential
     extrapolated charge   11.41806, renormalised to   13.00000

[...]

     enthalpy old            =    -117.9117131302 Ry
     enthalpy new            =    -117.9298711169 Ry

     CASE: enthalpy_new < enthalpy_old

[...]

     small trust_radius: resetting bfgs history

[...]

     number of scf cycles    =   6
     number of bfgs steps    =   5

     enthalpy old            =    -117.9330249922 Ry
     enthalpy new            =    -117.9330249941 Ry

     CASE: enthalpy_new < enthalpy_old

     Message from routine bfgs:
     history already reset at previous step: stopping
     small trust_radius: resetting bfgs history

     new trust radius        =       0.0000055852 bohr
     new conv_thr            =            1.0E-12 Ry

     new unit-cell volume =    122.15859 a.u.^3 (    18.10204 Ang^3 )

[...]

ATOMIC_POSITIONS (angstrom)
Nb       1.654077442   1.654077442   1.654077442

     NEW-OLD atomic charge density approx. for the potential
     extrapolated charge   12.99990, renormalised to   13.00000

[...]

     Threshold (ethr) on eigenvalues was too large:
     Diagonalizing with lowered threshold

     Davidson diagonalization with overlap
     ethr =  9.36E-12,  avg # of iterations =  1.0

[...]

     bfgs converged in   7 scf cycles and   6 bfgs steps
     (criteria: energy <  1.0E-10, force <  1.0E-05, cell <  1.0E-03)

     End of BFGS Geometry Optimization

     Final enthalpy =    -117.9330249940 Ry
Begin final coordinates
     new unit-cell volume =    122.15859 a.u.^3 (    18.10204 Ang^3 )

CELL_PARAMETERS (alat=  1.88972599)
   1.654077442  -1.654077442   1.654077442
   1.654077442   1.654077442  -1.654077442
  -1.654077442   1.654077442   1.654077442

ATOMIC_POSITIONS (angstrom)
Nb       1.654077442   1.654077442   1.654077442
End final coordinates

     A final scf calculation at the relaxed structure.
     The G-vectors are recalculated for the final unit cell
     Results may differ from those at the preceding step.

   Info: using nr1, nr2, nr3 values from input

   Info: using nr1, nr2, nr3 values from input

     bravais-lattice index     =            0
     lattice parameter (alat)  =       1.8897  a.u.
     unit-cell volume          =     122.1586 (a.u.)^3
     number of atoms/cell      =            1
     number of atomic types    =            1
     number of electrons       =        13.00
     number of Kohn-Sham states=           11
     kinetic-energy cutoff     =      50.0000  Ry
     charge density cutoff     =     500.0000  Ry
     convergence threshold     =      1.0E-12
     mixing beta               =       0.6000
     number of iterations used =            8  plain     mixing
     Exchange-correlation      =  SLA  PW   PBE  PBE ( 1  4  3  4 0 0)

     celldm(1)=   1.889726  celldm(2)=   0.000000  celldm(3)=   0.000000
     celldm(4)=   0.000000  celldm(5)=   0.000000  celldm(6)=   0.000000

     crystal axes: (cart. coord. in units of alat)
               a(1) = (   1.654077  -1.654077   1.654077 )
               a(2) = (   1.654077   1.654077  -1.654077 )
               a(3) = (  -1.654077   1.654077   1.654077 )

     reciprocal axes: (cart. coord. in units 2 pi/alat)
               b(1) = (  0.302283  0.000000  0.302283 )
               b(2) = (  0.302283  0.302283  0.000000 )
               b(3) = (  0.000000  0.302283  0.302283 )

     PseudoPot. # 1 for Nb read from file:
     ./Nb.pbe-nsp-van.UPF
     MD5 check sum: 0a22fc7fb0ba19a08ca5db297a5d2854
     Pseudo is Ultrasoft + core correction, Zval = 13.0
     Generated by new atomic code, or converted to UPF format
     Using radial grid of  887 points,  6 beta functions with:
                l(1) =   0
                l(2) =   0
                l(3) =   1
                l(4) =   1
                l(5) =   2
                l(6) =   2
     Q(r) pseudized with  6 coefficients,  rinner =    1.000   1.000   1.000
                                                       1.000   1.000

     atomic species   valence    mass     pseudopotential
        Nb            13.00    92.90638     Nb( 1.00)

     48 Sym. Ops., with inversion, found

   Cartesian axes

     site n.     atom                  positions (alat units)
         1           Nb  tau(   1) = (   1.6540776   1.6540776   1.6540776  )

     number of k points=   256  Marzari-Vanderbilt smearing, width (Ry)=  0.0200

     Number of k-points >= 100: set verbosity='high' to print them.

     Initial potential from superposition of free atoms

     starting charge   12.99727, renormalised to   13.00000
     Starting wfc are   13 randomized atomic wfcs

     Self-consistent Calculation

[...]

     total energy              =    -117.93288318 Ry
     Harris-Foulkes estimate   =    -117.93288318 Ry
     estimated scf accuracy    <          2.0E-11 Ry

     iteration #  8     ecut=    50.00 Ry     beta=0.60
     Davidson diagonalization with overlap
     ethr =  1.53E-13,  avg # of iterations =  2.1

     End of self-consistent calculation

     Number of k-points >= 100: set verbosity='high' to print the bands.

     the Fermi energy is    17.8738 ev

!    total energy              =    -117.93288318 Ry
     Harris-Foulkes estimate   =    -117.93288318 Ry
     estimated scf accuracy    <          1.5E-13 Ry

     The total energy is the sum of the following terms:

     one-electron contribution =     -16.10117296 Ry
     hartree contribution      =      14.98873309 Ry
     xc contribution           =     -18.43958963 Ry
     ewald contribution        =     -98.38116245 Ry
     smearing contrib. (-TS)   =       0.00030876 Ry

     convergence has been achieved in   8 iterations

     Forces acting on atoms (Ry/au):

     atom    1 type  1   force =     0.00000000    0.00000000    0.00000000

     Total force =     0.000000     Total SCF correction =     0.000000

     entering subroutine stress ...

          total   stress  (Ry/bohr**3)                   (kbar)     P=   -1.76
  -0.00001194   0.00000000   0.00000000         -1.76      0.00      0.00
   0.00000000  -0.00001194   0.00000000          0.00     -1.76      0.00
   0.00000000   0.00000000  -0.00001194          0.00      0.00     -1.76

     General routines

     Parallel routines

   This run was terminated on:  10:57:49  26Apr2018

   JOB DONE.