     Program PWSCF v.6.3MaX starts on 13Feb2020 at 13: 2:24

     R & G space division:  proc/nbgrp/npool/nimage =       4
     Waiting for input...
     Reading input from standard input

     Current dimensions of program PWSCF are:
     Max number of different atomic species (ntypx) = 10
     Max number of k-points (npk) =  40000
     Max angular momentum in pseudopotentials (lmaxx) =  3
     Message from routine iosys:
     minimal I/O required, wf_collect reset to FALSE

     Subspace diagonalization in iterative solution of the eigenvalue problem:
     a serial algorithm will be used

     bravais-lattice index     =            0
     lattice parameter (alat)  =       1.8897  a.u.
     unit-cell volume          =     808.3427 (a.u.)^3
     number of atoms/cell      =            6
     number of atomic types    =            2
     number of electrons       =        73.00
     number of Kohn-Sham states=           44
     kinetic-energy cutoff     =      40.0000  Ry
     charge density cutoff     =     400.0000  Ry
     convergence threshold     =      1.0E-10
     mixing beta               =       0.6000
     number of iterations used =            8  plain     mixing
     Exchange-correlation      = SLA PW PBE PBE ( 1  4  3  4 0 0)
     nstep                     =           50

     celldm(1)=   1.889726  celldm(2)=   0.000000  celldm(3)=   0.000000
     celldm(4)=   0.000000  celldm(5)=   0.000000  celldm(6)=   0.000000

     crystal axes: (cart. coord. in units of alat)
               a(1) = (   6.090008   5.274102   0.000000 )
               a(2) = (  -7.612510  -2.637051   0.000000 )
               a(3) = (   0.000000   0.000000   4.972461 )

     reciprocal axes: (cart. coord. in units 2 pi/alat)
               b(1) = ( -0.109469  0.316010  0.000000 )
               b(2) = ( -0.218938  0.252808  0.000000 )
               b(3) = (  0.000000  0.000000  0.201108 )

     PseudoPot. # 1 for Nb read from file:
     ./Nb.pbe-nsp-van.UPF
     MD5 check sum: 0a22fc7fb0ba19a08ca5db297a5d2854
     Pseudo is Ultrasoft + core correction, Zval = 13.0
     Generated by new atomic code, or converted to UPF format
     Using radial grid of  887 points,  6 beta functions with:
                l(1) =   0
                l(2) =   0
                l(3) =   1
                l(4) =   1
                l(5) =   2
                l(6) =   2
     Q(r) pseudized with  6 coefficients,  rinner =    1.000   1.000   1.000
                                                       1.000   1.000

     PseudoPot. # 2 for Ti read from file:
     ./Ti.pbe-sp-van_ak.UPF
     MD5 check sum: f98fea3e8887528921fefa5636a534ca
     Pseudo is Ultrasoft, Zval = 12.0
     Generated by new atomic code, or converted to UPF format
     Using radial grid of  851 points,  6 beta functions with:
                l(1) =   0
                l(2) =   0
                l(3) =   1
                l(4) =   1
                l(5) =   2
                l(6) =   2
     Q(r) pseudized with  8 coefficients,  rinner =    1.000   1.000   1.000
                                                       1.000   1.000

     atomic species   valence    mass     pseudopotential
        Nb            13.00    92.90638     Nb( 1.00)
        Ti            12.00    47.86700     Ti( 1.00)

      4 Sym. Ops. (no inversion) found

   Cartesian axes

     site n.     atom                  positions (alat units)
         1           Ti  tau(   1) = (  -1.5225021   2.6370512   4.9724614  )
         2           Ti  tau(   2) = (  -1.5225006   0.8790162   2.4862307  )
         3           Ti  tau(   3) = (   1.5225021   2.6370512   4.9724614  )
         4           Ti  tau(   4) = (  -6.0900069  -1.7580350   2.4862307  )
         5           Ti  tau(   5) = (  -3.0450042   0.0000000   4.9724614  )
         6           Nb  tau(   6) = (   3.0450058   3.5160674   2.4862307  )

     number of k points=   248  Marzari-Vanderbilt smearing, width (Ry)=  0.0200

     Number of k-points >= 100: set verbosity='high' to print them.

     Initial potential from superposition of free atoms

     starting charge   67.99705, renormalised to   73.00000
     Starting wfcs are   63 randomized atomic wfcs

     Self-consistent Calculation

     iteration #  1     ecut=    40.00 Ry     beta= 0.60
     Davidson diagonalization with overlap
     ethr =  1.00E-02,  avg # of iterations =  4.0

     total energy              =    -677.17986068 Ry
     Harris-Foulkes estimate   =    -704.60182408 Ry
     estimated scf accuracy    <      33.96598988 Ry

[...]

     iteration # 16     ecut=    40.00 Ry     beta= 0.60
     Davidson diagonalization with overlap
     c_bands:  1 eigenvalues not converged
     ethr =  8.88E-05,  avg # of iterations =  6.8

[...]

     End of self-consistent calculation

     Number of k-points >= 100: set verbosity='high' to print the bands.

     the Fermi energy is    12.1345 ev

!    total energy              =    -701.12288052 Ry
     Harris-Foulkes estimate   =    -701.12288052 Ry
     estimated scf accuracy    <          9.9E-11 Ry

     The total energy is the sum of the following terms:

     one-electron contribution =    -258.07418664 Ry
     hartree contribution      =     147.89361218 Ry
     xc contribution           =     -90.43199585 Ry
     ewald contribution        =    -500.50764032 Ry
     smearing contrib. (-TS)   =      -0.00266990 Ry

     convergence has been achieved in  37 iterations

     Forces acting on atoms (cartesian axes, Ry/au):

     atom    1 type  2   force =     0.00081019    0.00046777    0.00000000
     atom    2 type  2   force =     0.00065978    0.00038092    0.00000000
     atom    3 type  2   force =    -0.00002800   -0.00001617    0.00000000
     atom    4 type  2   force =    -0.00029761   -0.00017182    0.00000000
     atom    5 type  2   force =    -0.00019552   -0.00011288    0.00000000
     atom    6 type  1   force =    -0.00094885   -0.00054782    0.00000000

     Total force =     0.001681     Total SCF correction =     0.000014

     Computing stress (Cartesian axis) and pressure

          total   stress  (Ry/bohr**3)                   (kbar)     P= -133.34
  -0.00086583   0.00001379   0.00000000       -127.37      2.03      0.00
   0.00001379  -0.00088175   0.00000000          2.03   -129.71      0.00
   0.00000000   0.00000000  -0.00097167          0.00      0.00   -142.94

     BFGS Geometry Optimization

     number of scf cycles    =   1
     number of bfgs steps    =   0

     enthalpy new            =    -701.1228805220 Ry

     new trust radius        =       0.1381290272 bohr
     new conv_thr            =            1.0E-10 Ry

     new unit-cell volume =    754.62474 a.u.^3 (   111.82385 Ang^3 )
     density =      4.93365 g/cm^3

CELL_PARAMETERS (alat=  1.88972599)
   5.960003360   5.159940104   0.000000000
  -7.448640571  -2.581544635   0.000000000
   0.000000000   0.000000000   4.851671669

ATOMIC_POSITIONS (angstrom)
Ti      -1.488217670   2.578637691   4.851671669
Ti      -1.488900125   0.859311644   2.425835835
Ti       1.490440884   2.579436820   4.851671669
Ti      -5.958943865  -1.721469498   2.425835835
Ti      -2.979193837  -0.001108175   4.851671669
Nb       2.979814855   3.439325626   2.425835835

     NEW-OLD atomic charge density approx. for the potential
     extrapolated charge   68.15963, renormalised to   73.00000

[...]

     enthalpy old            =    -701.1228805220 Ry
     enthalpy new            =    -701.1611842289 Ry

     CASE: enthalpy_new < enthalpy_old

[...]

     WARNING: bfgs curvature condition failed, Theta= 0.924
     new trust radius        =       0.0058614195 bohr
     new conv_thr            =            1.0E-10 Ry

[...]

     WARNING: bfgs curvature condition failed, Theta= 0.898
     new trust radius        =       0.0047324688 bohr
     new conv_thr            =            1.0E-10 Ry

[...]

     Threshold (ethr) on eigenvalues was too large:
     Diagonalizing with lowered threshold

     Davidson diagonalization with overlap
     ethr =  8.00E-08,  avg # of iterations =  1.7

[...]

     Total force =     0.000046     Total SCF correction =     0.000008
     SCF correction compared to forces is large: reduce conv_thr to get better values

[...]

     small trust_radius: resetting bfgs history

[...]

     number of scf cycles    =  35
     number of bfgs steps    =  34

     enthalpy old            =    -701.1761917392 Ry
     enthalpy new            =    -701.1761917409 Ry

     CASE: enthalpy_new < enthalpy_old

     WARNING: bfgs curvature condition failed, Theta= 0.958
     Message from routine bfgs:
     history already reset at previous step: stopping
     small trust_radius: resetting bfgs history

     new trust radius        =       0.0000201872 bohr
     new conv_thr            =            1.7E-12 Ry

     new unit-cell volume =    704.97514 a.u.^3 (   104.46654 Ang^3 )
     density =      5.28111 g/cm^3

[...]

ATOMIC_POSITIONS (angstrom)
Ti      -1.331822966   2.516947344   4.687095847
Ti      -1.523634059   0.763265641   2.343547923
Ti       1.631044336   2.584621824   4.687095847
Ti      -6.094330641  -1.875627443   2.343547923
Ti      -2.847777966  -0.001227624   4.687095847
Nb       2.925632666   3.332051170   2.343547923

     NEW-OLD atomic charge density approx. for the potential
     extrapolated charge   72.99998, renormalised to   73.00000

[...]

     Threshold (ethr) on eigenvalues was too large:
     Diagonalizing with lowered threshold

     Davidson diagonalization with overlap
     ethr =  4.19E-12,  avg # of iterations =  3.6

[...]

     bfgs converged in  36 scf cycles and  35 bfgs steps
     (criteria: energy <  1.0E-10 Ry, force <  1.0E-05Ry/Bohr, cell <  1.0E-03kbar)

     End of BFGS Geometry Optimization

     Final enthalpy =    -701.1761917420 Ry
Begin final coordinates
     new unit-cell volume =    704.97514 a.u.^3 (   104.46654 Ang^3 )
     density =      5.28111 g/cm^3

CELL_PARAMETERS (alat=  1.88972599)
   6.071594961   5.148375109   0.000000000
  -7.494420790  -2.683968290   0.000000000
   0.000000000   0.000000000   4.687095847

ATOMIC_POSITIONS (angstrom)
Ti      -1.331822966   2.516947344   4.687095847
Ti      -1.523634059   0.763265641   2.343547923
Ti       1.631044336   2.584621824   4.687095847
Ti      -6.094330641  -1.875627443   2.343547923
Ti      -2.847777966  -0.001227624   4.687095847
Nb       2.925632666   3.332051170   2.343547923
End final coordinates

     A final scf calculation at the relaxed structure.
     The G-vectors are recalculated for the final unit cell
     Results may differ from those at the preceding step.

     bravais-lattice index     =            0
     lattice parameter (alat)  =       1.8897  a.u.
     unit-cell volume          =     704.9751 (a.u.)^3
     number of atoms/cell      =            6
     number of atomic types    =            2
     number of electrons       =        73.00
     number of Kohn-Sham states=           44
     kinetic-energy cutoff     =      40.0000  Ry
     charge density cutoff     =     400.0000  Ry
     convergence threshold     =      1.7E-12
     mixing beta               =       0.6000
     number of iterations used =            8  plain     mixing
     Exchange-correlation      = SLA PW PBE PBE ( 1  4  3  4 0 0)

     celldm(1)=   1.889726  celldm(2)=   0.000000  celldm(3)=   0.000000
     celldm(4)=   0.000000  celldm(5)=   0.000000  celldm(6)=   0.000000

     crystal axes: (cart. coord. in units of alat)
               a(1) = (   6.071595   5.148375   0.000000 )
               a(2) = (  -7.494421  -2.683968   0.000000 )
               a(3) = (   0.000000   0.000000   4.687096 )

     reciprocal axes: (cart. coord. in units 2 pi/alat)
               b(1) = ( -0.120421  0.336252  0.000000 )
               b(2) = ( -0.230992  0.272414  0.000000 )
               b(3) = (  0.000000  0.000000  0.213352 )

     PseudoPot. # 1 for Nb read from file:
     ./Nb.pbe-nsp-van.UPF
     MD5 check sum: 0a22fc7fb0ba19a08ca5db297a5d2854
     Pseudo is Ultrasoft + core correction, Zval = 13.0
     Generated by new atomic code, or converted to UPF format
     Using radial grid of  887 points,  6 beta functions with:
                l(1) =   0
                l(2) =   0
                l(3) =   1
                l(4) =   1
                l(5) =   2
                l(6) =   2
     Q(r) pseudized with  6 coefficients,  rinner =    1.000   1.000   1.000
                                                       1.000   1.000

     PseudoPot. # 2 for Ti read from file:
     ./Ti.pbe-sp-van_ak.UPF
     MD5 check sum: f98fea3e8887528921fefa5636a534ca
     Pseudo is Ultrasoft, Zval = 12.0
     Generated by new atomic code, or converted to UPF format
     Using radial grid of  851 points,  6 beta functions with:
                l(1) =   0
                l(2) =   0
                l(3) =   1
                l(4) =   1
                l(5) =   2
                l(6) =   2
     Q(r) pseudized with  8 coefficients,  rinner =    1.000   1.000   1.000
                                                       1.000   1.000

     atomic species   valence    mass     pseudopotential
        Nb            13.00    92.90638     Nb( 1.00)
        Ti            12.00    47.86700     Ti( 1.00)

      4 Sym. Ops. (no inversion) found

   Cartesian axes

     site n.     atom                  positions (alat units)
         1           Ti  tau(   1) = (  -1.3318231   2.5169475   4.6870962  )
         2           Ti  tau(   2) = (  -1.5236342   0.7632657   2.3435481  )
         3           Ti  tau(   3) = (   1.6310445   2.5846220   4.6870962  )
         4           Ti  tau(   4) = (  -6.0943311  -1.8756276   2.3435481  )
         5           Ti  tau(   5) = (  -2.8477782  -0.0012276   4.6870962  )
         6           Nb  tau(   6) = (   2.9256329   3.3320514   2.3435481  )

     number of k points=   248  Marzari-Vanderbilt smearing, width (Ry)=  0.0200

     Number of k-points >= 100: set verbosity='high' to print them.

     Initial potential from superposition of free atoms

     starting charge   67.99705, renormalised to   73.00000
     Starting wfcs are   63 randomized atomic wfcs

     Self-consistent Calculation

[...]

     iteration # 16     ecut=    40.00 Ry     beta= 0.60
     Davidson diagonalization with overlap
     c_bands:  1 eigenvalues not converged
     ethr =  3.62E-07,  avg # of iterations =  7.0

[...]

     total energy              =    -701.17034135 Ry
     Harris-Foulkes estimate   =    -701.17034135 Ry
     estimated scf accuracy    <          2.0E-12 Ry

     iteration # 30     ecut=    40.00 Ry     beta= 0.60
     Davidson diagonalization with overlap
     ethr =  1.00E-13,  avg # of iterations =  1.0

     End of self-consistent calculation

     Number of k-points >= 100: set verbosity='high' to print the bands.

     the Fermi energy is    14.1960 ev

!    total energy              =    -701.17034135 Ry
     Harris-Foulkes estimate   =    -701.17034135 Ry
     estimated scf accuracy    <          8.9E-13 Ry

     The total energy is the sum of the following terms:

     one-electron contribution =    -223.44690963 Ry
     hartree contribution      =     137.07523168 Ry
     xc contribution           =     -91.06411021 Ry
     ewald contribution        =    -523.73396057 Ry
     smearing contrib. (-TS)   =      -0.00059261 Ry

     convergence has been achieved in  30 iterations

     Forces acting on atoms (cartesian axes, Ry/au):

     atom    1 type  2   force =     0.00005217    0.00003012    0.00000000
     atom    2 type  2   force =    -0.00008637   -0.00004986    0.00000000
     atom    3 type  2   force =     0.00023694    0.00013680    0.00000000
     atom    4 type  2   force =     0.00001870    0.00001080    0.00000000
     atom    5 type  2   force =    -0.00017985   -0.00010384    0.00000000
     atom    6 type  1   force =    -0.00004160   -0.00002402    0.00000000

     Total force =     0.000367     Total SCF correction =     0.000004

     Computing stress (Cartesian axis) and pressure

          total   stress  (Ry/bohr**3)                   (kbar)     P=   -6.82
  -0.00003816   0.00000954   0.00000000         -5.61      1.40      0.00
   0.00000954  -0.00004918   0.00000000          1.40     -7.24      0.00
   0.00000000   0.00000000  -0.00005179          0.00      0.00     -7.62

     General routines

     Parallel routines

      36h

   This run was terminated on:  22:39: 8  13Feb2020

   JOB DONE.