     Program PWSCF v.6.3MaX starts on 18Feb2020 at  9:42:20

     R & G space division:  proc/nbgrp/npool/nimage =       4
     Waiting for input...
     Reading input from standard input

     Current dimensions of program PWSCF are:
     Max number of different atomic species (ntypx) = 10
     Max number of k-points (npk) =  40000
     Max angular momentum in pseudopotentials (lmaxx) =  3
     Message from routine iosys:
     minimal I/O required, wf_collect reset to FALSE

     Subspace diagonalization in iterative solution of the eigenvalue problem:
     a serial algorithm will be used

     bravais-lattice index     =            0
     lattice parameter (alat)  =       1.8897  a.u.
     unit-cell volume          =     808.3427 (a.u.)^3
     number of atoms/cell      =            6
     number of atomic types    =            2
     number of electrons       =        74.00
     number of Kohn-Sham states=           44
     kinetic-energy cutoff     =      40.0000  Ry
     charge density cutoff     =     400.0000  Ry
     convergence threshold     =      1.0E-10
     mixing beta               =       0.6000
     number of iterations used =            8  plain     mixing
     Exchange-correlation      = SLA PW PBE PBE ( 1  4  3  4 0 0)
     nstep                     =           50

     celldm(1)=   1.889726  celldm(2)=   0.000000  celldm(3)=   0.000000
     celldm(4)=   0.000000  celldm(5)=   0.000000  celldm(6)=   0.000000

     crystal axes: (cart. coord. in units of alat)
               a(1) = (  -3.045004   0.000000   4.972461 )
               a(2) = (  -1.522502   2.637051   4.972461 )
               a(3) = (  -4.567506   2.637051  -4.972461 )

     reciprocal axes: (cart. coord. in units 2 pi/alat)
               b(1) = ( -0.218938 -0.252808  0.067036 )
               b(2) = (  0.109469  0.316010  0.067036 )
               b(3) = ( -0.109469  0.063202 -0.067036 )

     PseudoPot. # 1 for Nb read from file:
     ./Nb.pbe-nsp-van.UPF
     MD5 check sum: 0a22fc7fb0ba19a08ca5db297a5d2854
     Pseudo is Ultrasoft + core correction, Zval = 13.0
     Generated by new atomic code, or converted to UPF format
     Using radial grid of  887 points,  6 beta functions with:
                l(1) =   0
                l(2) =   0
                l(3) =   1
                l(4) =   1
                l(5) =   2
                l(6) =   2
     Q(r) pseudized with  6 coefficients,  rinner =    1.000   1.000   1.000
                                                       1.000   1.000

     PseudoPot. # 2 for Ti read from file:
     ./Ti.pbe-sp-van_ak.UPF
     MD5 check sum: f98fea3e8887528921fefa5636a534ca
     Pseudo is Ultrasoft, Zval = 12.0
     Generated by new atomic code, or converted to UPF format
     Using radial grid of  851 points,  6 beta functions with:
                l(1) =   0
                l(2) =   0
                l(3) =   1
                l(4) =   1
                l(5) =   2
                l(6) =   2
     Q(r) pseudized with  8 coefficients,  rinner =    1.000   1.000   1.000
                                                       1.000   1.000

     atomic species   valence    mass     pseudopotential
        Nb            13.00    92.90638     Nb( 1.00)
        Ti            12.00    47.86700     Ti( 1.00)

      2 Sym. Ops. (no inversion) found

   Cartesian axes

     site n.     atom                  positions (alat units)
         1           Ti  tau(   1) = (  -4.5675063   2.6370512   0.0000000  )
         2           Ti  tau(   2) = (  -6.0900069   3.5160674   2.4862307  )
         3           Nb  tau(   3) = (  -4.5675063   2.6370512   4.9724614  )
         4           Ti  tau(   4) = (  -6.0900069   3.5160674   7.4586921  )
         5           Ti  tau(   5) = (  -9.1350127   5.2741024   4.9724614  )
         6           Nb  tau(   6) = (  -1.5225006   0.8790162   2.4862307  )

     number of k points=   398  Marzari-Vanderbilt smearing, width (Ry)=  0.0200

     Number of k-points >= 100: set verbosity='high' to print them.

     Initial potential from superposition of free atoms

     starting charge   69.99436, renormalised to   74.00000
     Starting wfcs are   66 randomized atomic wfcs

     Self-consistent Calculation

     iteration #  1     ecut=    40.00 Ry     beta= 0.60
     Davidson diagonalization with overlap
     ethr =  1.00E-02,  avg # of iterations =  3.5

     total energy              =    -677.20030387 Ry
     Harris-Foulkes estimate   =    -706.19665722 Ry
     estimated scf accuracy    <      35.99676929 Ry

[...]

     End of self-consistent calculation

     Number of k-points >= 100: set verbosity='high' to print the bands.

     the Fermi energy is    12.9909 ev

!    total energy              =    -702.38200900 Ry
     Harris-Foulkes estimate   =    -702.38200900 Ry
     estimated scf accuracy    <          1.9E-11 Ry

     The total energy is the sum of the following terms:

     one-electron contribution =    -231.42170647 Ry
     hartree contribution      =     137.80115872 Ry
     xc contribution           =     -94.33863880 Ry
     ewald contribution        =    -514.41737389 Ry
     smearing contrib. (-TS)   =      -0.00544856 Ry

     convergence has been achieved in  36 iterations

     Forces acting on atoms (cartesian axes, Ry/au):

     atom    1 type  2   force =     0.00210161   -0.00121336    0.00405737
     atom    2 type  2   force =    -0.00210165    0.00121339   -0.00405716
     atom    3 type  1   force =    -0.00232719    0.00134360   -0.01108896
     atom    4 type  2   force =     0.00104645   -0.00060417   -0.00063720
     atom    5 type  2   force =    -0.00104654    0.00060422    0.00063706
     atom    6 type  1   force =     0.00232732   -0.00134368    0.01108890

     Total force =     0.017573     Total SCF correction =     0.000012

     Computing stress (Cartesian axis) and pressure

          total   stress  (Ry/bohr**3)                   (kbar)     P= -128.85
  -0.00088014  -0.00001629   0.00000302       -129.47     -2.40      0.44
  -0.00001629  -0.00089895  -0.00000175         -2.40   -132.24     -0.26
   0.00000302  -0.00000175  -0.00084857          0.44     -0.26   -124.83

     BFGS Geometry Optimization

     number of scf cycles    =   1
     number of bfgs steps    =   0

     enthalpy new            =    -702.3820089978 Ry

     new trust radius        =       0.1278124949 bohr
     new conv_thr            =            1.0E-10 Ry

     new unit-cell volume =    756.39549 a.u.^3 (   112.08625 Ang^3 )
     density =      5.58935 g/cm^3

CELL_PARAMETERS (alat=  1.88972599)
  -2.977627471   0.001022891   4.866743982
  -1.489699585   2.578189773   4.866743982
  -4.468454973   2.579863867  -4.867434688

ATOMIC_POSITIONS (angstrom)
Ti      -4.466990924   2.579018598   0.001641159
Ti      -5.958337290   3.440047886   2.430771623
Nb      -4.468908161   2.580125515   4.860770083
Ti      -5.956331541   3.438889866   7.299517381
Ti      -8.936323753   5.159389295   4.866383186
Nb      -1.487964994   0.859077052   2.439077249

     NEW-OLD atomic charge density approx. for the potential
     extrapolated charge   69.19297, renormalised to   74.00000

[...]

     iteration #  1     ecut=    40.00 Ry     beta= 0.60
     Davidson diagonalization with overlap
     c_bands:  4 eigenvalues not converged
     c_bands:  4 eigenvalues not converged
     c_bands:  3 eigenvalues not converged
     c_bands:  4 eigenvalues not converged
     c_bands:  3 eigenvalues not converged
     c_bands:  2 eigenvalues not converged
     c_bands:  1 eigenvalues not converged
     c_bands:  2 eigenvalues not converged
     c_bands:  3 eigenvalues not converged
     c_bands:  1 eigenvalues not converged
     c_bands:  1 eigenvalues not converged
     c_bands:  1 eigenvalues not converged
     c_bands:  1 eigenvalues not converged
     c_bands:  2 eigenvalues not converged
     c_bands:  2 eigenvalues not converged
     c_bands:  2 eigenvalues not converged
     c_bands:  2 eigenvalues not converged
     c_bands:  3 eigenvalues not converged
     c_bands:  1 eigenvalues not converged
     c_bands:  2 eigenvalues not converged
     c_bands:  2 eigenvalues not converged
     c_bands:  1 eigenvalues not converged
     c_bands:  1 eigenvalues not converged
     c_bands:  1 eigenvalues not converged
     c_bands:  2 eigenvalues not converged
     c_bands:  1 eigenvalues not converged
     c_bands:  2 eigenvalues not converged
     c_bands:  2 eigenvalues not converged
     c_bands:  4 eigenvalues not converged
     c_bands:  4 eigenvalues not converged
     c_bands:  3 eigenvalues not converged
     c_bands:  2 eigenvalues not converged
     c_bands:  2 eigenvalues not converged
     c_bands:  3 eigenvalues not converged
     c_bands:  2 eigenvalues not converged
     c_bands:  2 eigenvalues not converged
     c_bands:  1 eigenvalues not converged
     c_bands:  1 eigenvalues not converged
     c_bands:  1 eigenvalues not converged
     c_bands:  1 eigenvalues not converged
     c_bands:  1 eigenvalues not converged
     c_bands:  1 eigenvalues not converged
     c_bands:  1 eigenvalues not converged
     c_bands:  1 eigenvalues not converged
     c_bands:  2 eigenvalues not converged
     c_bands:  3 eigenvalues not converged
     c_bands:  1 eigenvalues not converged
     c_bands:  2 eigenvalues not converged
     c_bands:  1 eigenvalues not converged
     c_bands:  1 eigenvalues not converged
     c_bands:  2 eigenvalues not converged
     c_bands:  1 eigenvalues not converged
     c_bands:  1 eigenvalues not converged
     c_bands:  1 eigenvalues not converged
     c_bands:  1 eigenvalues not converged
     c_bands:  3 eigenvalues not converged
     c_bands:  1 eigenvalues not converged
     c_bands:  1 eigenvalues not converged
     c_bands:  2 eigenvalues not converged
     c_bands:  1 eigenvalues not converged
[...]
     c_bands:  4 eigenvalues not converged
     c_bands:  2 eigenvalues not converged
     c_bands:  1 eigenvalues not converged
     c_bands:  1 eigenvalues not converged
     c_bands:  1 eigenvalues not converged
     c_bands:  1 eigenvalues not converged
     c_bands:  3 eigenvalues not converged
     c_bands:  2 eigenvalues not converged
     c_bands:  1 eigenvalues not converged
     c_bands:  2 eigenvalues not converged
     c_bands:  5 eigenvalues not converged
     c_bands:  3 eigenvalues not converged
     c_bands:  2 eigenvalues not converged
     c_bands:  3 eigenvalues not converged
     c_bands:  2 eigenvalues not converged
     ethr =  1.00E-06,  avg # of iterations = 18.1

[...]

     enthalpy old            =    -702.3820089978 Ry
     enthalpy new            =    -702.4171124429 Ry

     CASE: enthalpy_new < enthalpy_old

[...]

     Threshold (ethr) on eigenvalues was too large:
     Diagonalizing with lowered threshold

     Davidson diagonalization with overlap
     ethr =  3.55E-08,  avg # of iterations =  1.9

[...]

     Total force =     0.000054     Total SCF correction =     0.000006
     SCF correction compared to forces is large: reduce conv_thr to get better values

[...]

     small trust_radius: resetting bfgs history

[...]

     number of scf cycles    =  32
     number of bfgs steps    =  31

     enthalpy old            =    -702.4421526859 Ry
     enthalpy new            =    -702.4421526870 Ry

     CASE: enthalpy_new < enthalpy_old

     WARNING: bfgs curvature condition failed, Theta= 0.974
     Message from routine bfgs:
     history already reset at previous step: stopping
     small trust_radius: resetting bfgs history

     new trust radius        =       0.0000131989 bohr
     new conv_thr            =            1.0E-12 Ry

     new unit-cell volume =    711.08953 a.u.^3 (   105.37259 Ang^3 )
     density =      5.94547 g/cm^3

[...]

ATOMIC_POSITIONS (angstrom)
Ti      -4.725162559   2.728074051  -0.029532374
Ti      -5.961054727   3.441616797   2.312223778
Nb      -4.741239177   2.737355890   4.665461656
Ti      -5.979640908   3.452347533   7.013463006
Ti      -9.251491049   5.341351205   4.706715554
Nb      -1.341443033   0.774482563   2.391184167

     NEW-OLD atomic charge density approx. for the potential
     extrapolated charge   74.00007, renormalised to   74.00000

[...]

     Threshold (ethr) on eigenvalues was too large:
     Diagonalizing with lowered threshold

     Davidson diagonalization with overlap
     ethr =  6.08E-13,  avg # of iterations =  4.3

[...]

     Total force =     0.000016     Total SCF correction =     0.000004
     SCF correction compared to forces is large: reduce conv_thr to get better values

[...]

     bfgs converged in  33 scf cycles and  32 bfgs steps
     (criteria: energy <  1.0E-10 Ry, force <  1.0E-05Ry/Bohr, cell <  1.0E-03kbar)

     End of BFGS Geometry Optimization

     Final enthalpy =    -702.4421526875 Ry
Begin final coordinates
     new unit-cell volume =    711.08953 a.u.^3 (   105.37259 Ang^3 )
     density =      5.94547 g/cm^3

CELL_PARAMETERS (alat=  1.88972599)
  -2.972880047   0.098835390   4.718743946
  -1.572033987   2.525172134   4.718743946
  -4.603536496   2.657853215  -4.773954052

ATOMIC_POSITIONS (angstrom)
Ti      -4.725162559   2.728074051  -0.029532374
Ti      -5.961054727   3.441616797   2.312223778
Nb      -4.741239177   2.737355890   4.665461656
Ti      -5.979640908   3.452347533   7.013463006
Ti      -9.251491049   5.341351205   4.706715554
Nb      -1.341443033   0.774482563   2.391184167
End final coordinates

     A final scf calculation at the relaxed structure.
     The G-vectors are recalculated for the final unit cell
     Results may differ from those at the preceding step.

     bravais-lattice index     =            0
     lattice parameter (alat)  =       1.8897  a.u.
     unit-cell volume          =     711.0895 (a.u.)^3
     number of atoms/cell      =            6
     number of atomic types    =            2
     number of electrons       =        74.00
     number of Kohn-Sham states=           44
     kinetic-energy cutoff     =      40.0000  Ry
     charge density cutoff     =     400.0000  Ry
     convergence threshold     =      1.0E-12
     mixing beta               =       0.6000
     number of iterations used =            8  plain     mixing
     Exchange-correlation      = SLA PW PBE PBE ( 1  4  3  4 0 0)

     celldm(1)=   1.889726  celldm(2)=   0.000000  celldm(3)=   0.000000
     celldm(4)=   0.000000  celldm(5)=   0.000000  celldm(6)=   0.000000

     crystal axes: (cart. coord. in units of alat)
               a(1) = (  -2.972880   0.098835   4.718744 )
               a(2) = (  -1.572034   2.525172   4.718744 )
               a(3) = (  -4.603536   2.657853  -4.773954 )

     reciprocal axes: (cart. coord. in units 2 pi/alat)
               b(1) = ( -0.233427 -0.277375  0.070668 )
               b(2) = (  0.123500  0.340841  0.070668 )
               b(3) = ( -0.108655  0.062732 -0.069768 )

     PseudoPot. # 1 for Nb read from file:
     ./Nb.pbe-nsp-van.UPF
     MD5 check sum: 0a22fc7fb0ba19a08ca5db297a5d2854
     Pseudo is Ultrasoft + core correction, Zval = 13.0
     Generated by new atomic code, or converted to UPF format
     Using radial grid of  887 points,  6 beta functions with:
                l(1) =   0
                l(2) =   0
                l(3) =   1
                l(4) =   1
                l(5) =   2
                l(6) =   2
     Q(r) pseudized with  6 coefficients,  rinner =    1.000   1.000   1.000
                                                       1.000   1.000

     PseudoPot. # 2 for Ti read from file:
     ./Ti.pbe-sp-van_ak.UPF
     MD5 check sum: f98fea3e8887528921fefa5636a534ca
     Pseudo is Ultrasoft, Zval = 12.0
     Generated by new atomic code, or converted to UPF format
     Using radial grid of  851 points,  6 beta functions with:
                l(1) =   0
                l(2) =   0
                l(3) =   1
                l(4) =   1
                l(5) =   2
                l(6) =   2
     Q(r) pseudized with  8 coefficients,  rinner =    1.000   1.000   1.000
                                                       1.000   1.000

     atomic species   valence    mass     pseudopotential
        Nb            13.00    92.90638     Nb( 1.00)
        Ti            12.00    47.86700     Ti( 1.00)

      2 Sym. Ops. (no inversion) found

   Cartesian axes

     site n.     atom                  positions (alat units)
         1           Ti  tau(   1) = (  -4.7251629   2.7280743  -0.0295324  )
         2           Ti  tau(   2) = (  -5.9610552   3.4416171   2.3122240  )
         3           Nb  tau(   3) = (  -4.7412395   2.7373561   4.6654620  )
         4           Ti  tau(   4) = (  -5.9796414   3.4523478   7.0134635  )
         5           Ti  tau(   5) = (  -9.2514918   5.3413516   4.7067159  )
         6           Nb  tau(   6) = (  -1.3414431   0.7744826   2.3911843  )

     number of k points=   398  Marzari-Vanderbilt smearing, width (Ry)=  0.0200

     Number of k-points >= 100: set verbosity='high' to print them.

     Initial potential from superposition of free atoms

     starting charge   69.99436, renormalised to   74.00000
     Starting wfcs are   66 randomized atomic wfcs

     Self-consistent Calculation

[...]

     iteration # 16     ecut=    40.00 Ry     beta= 0.60
     Davidson diagonalization with overlap
     c_bands:  1 eigenvalues not converged
     c_bands:  1 eigenvalues not converged
     c_bands:  1 eigenvalues not converged
     c_bands:  1 eigenvalues not converged
     c_bands:  1 eigenvalues not converged
     c_bands:  1 eigenvalues not converged
     c_bands:  1 eigenvalues not converged
     c_bands:  1 eigenvalues not converged
     ethr =  1.12E-06,  avg # of iterations =  4.6

[...]

     total energy              =    -702.43757285 Ry
     Harris-Foulkes estimate   =    -702.43757285 Ry
     estimated scf accuracy    <          4.9E-12 Ry

     iteration # 32     ecut=    40.00 Ry     beta= 0.60
     Davidson diagonalization with overlap
     ethr =  1.00E-13,  avg # of iterations =  1.0

     End of self-consistent calculation

     Number of k-points >= 100: set verbosity='high' to print the bands.

     the Fermi energy is    14.9598 ev

!    total energy              =    -702.43757285 Ry
     Harris-Foulkes estimate   =    -702.43757285 Ry
     estimated scf accuracy    <          4.8E-13 Ry

     The total energy is the sum of the following terms:

     one-electron contribution =    -199.29673744 Ry
     hartree contribution      =     128.14863365 Ry
     xc contribution           =     -94.97986818 Ry
     ewald contribution        =    -536.31022271 Ry
     smearing contrib. (-TS)   =       0.00062183 Ry

     convergence has been achieved in  32 iterations

     Forces acting on atoms (cartesian axes, Ry/au):

     atom    1 type  2   force =     0.00009330   -0.00005387   -0.00017260
     atom    2 type  2   force =    -0.00009361    0.00005405    0.00017263
     atom    3 type  1   force =    -0.00002760    0.00001594    0.00004191
     atom    4 type  2   force =     0.00013580   -0.00007840    0.00002126
     atom    5 type  2   force =    -0.00013561    0.00007829   -0.00002123
     atom    6 type  1   force =     0.00002772   -0.00001601   -0.00004198

     Total force =     0.000372     Total SCF correction =     0.000004

     Computing stress (Cartesian axis) and pressure

          total   stress  (Ry/bohr**3)                   (kbar)     P=   -4.74
  -0.00002408  -0.00001154   0.00000205         -3.54     -1.70      0.30
  -0.00001154  -0.00003740  -0.00000119         -1.70     -5.50     -0.17
   0.00000205  -0.00000119  -0.00003524          0.30     -0.17     -5.18

     General routines

     Parallel routines

      30h

   This run was terminated on:  22:13:11  18Feb2020

   JOB DONE.