     Program PWSCF v.6.3MaX starts on 28Jan2020 at 13:50:52

     R & G space division:  proc/nbgrp/npool/nimage =       4
     Waiting for input...
     Reading input from standard input

     Current dimensions of program PWSCF are:
     Max number of different atomic species (ntypx) = 10
     Max number of k-points (npk) =  40000
     Max angular momentum in pseudopotentials (lmaxx) =  3
     Message from routine iosys:
     minimal I/O required, wf_collect reset to FALSE

     Subspace diagonalization in iterative solution of the eigenvalue problem:
     a serial algorithm will be used

     bravais-lattice index     =            0
     lattice parameter (alat)  =       1.8897  a.u.
     unit-cell volume          =    1077.7903 (a.u.)^3
     number of atoms/cell      =            8
     number of atomic types    =            2
     number of electrons       =       100.00
     number of Kohn-Sham states=           60
     kinetic-energy cutoff     =      40.0000  Ry
     charge density cutoff     =     400.0000  Ry
     convergence threshold     =      1.0E-10
     mixing beta               =       0.6000
     number of iterations used =            8  plain     mixing
     Exchange-correlation      = SLA PW PBE PBE ( 1  4  3  4 0 0)
     nstep                     =           50

     celldm(1)=   1.889726  celldm(2)=   0.000000  celldm(3)=   0.000000
     celldm(4)=   0.000000  celldm(5)=   0.000000  celldm(6)=   0.000000

     crystal axes: (cart. coord. in units of alat)
               a(1) = (   3.045004  -5.274102   0.000000 )
               a(2) = (  -6.090008   0.000000   0.000000 )
               a(3) = (   0.000000   0.000000  -4.972461 )

     reciprocal axes: (cart. coord. in units 2 pi/alat)
               b(1) = (  0.000000 -0.189606  0.000000 )
               b(2) = ( -0.164203 -0.094803  0.000000 )
               b(3) = (  0.000000  0.000000 -0.201108 )

     PseudoPot. # 1 for Nb read from file:
     ./Nb.pbe-nsp-van.UPF
     MD5 check sum: 0a22fc7fb0ba19a08ca5db297a5d2854
     Pseudo is Ultrasoft + core correction, Zval = 13.0
     Generated by new atomic code, or converted to UPF format
     Using radial grid of  887 points,  6 beta functions with:
                l(1) =   0
                l(2) =   0
                l(3) =   1
                l(4) =   1
                l(5) =   2
                l(6) =   2
     Q(r) pseudized with  6 coefficients,  rinner =    1.000   1.000   1.000
                                                       1.000   1.000

     PseudoPot. # 2 for Ti read from file:
     ./Ti.pbe-sp-van_ak.UPF
     MD5 check sum: f98fea3e8887528921fefa5636a534ca
     Pseudo is Ultrasoft, Zval = 12.0
     Generated by new atomic code, or converted to UPF format
     Using radial grid of  851 points,  6 beta functions with:
                l(1) =   0
                l(2) =   0
                l(3) =   1
                l(4) =   1
                l(5) =   2
                l(6) =   2
     Q(r) pseudized with  8 coefficients,  rinner =    1.000   1.000   1.000
                                                       1.000   1.000

     atomic species   valence    mass     pseudopotential
        Nb            13.00    92.90638     Nb( 1.00)
        Ti            12.00    47.86700     Ti( 1.00)

      4 Sym. Ops. (no inversion) found
          (note:  8 additional sym.ops. were found but ignored
           their fractional translations are incommensurate with FFT grid)

   Cartesian axes

     site n.     atom                  positions (alat units)
         1           Ti  tau(   1) = (  -3.0450042  -5.2741024  -4.9724614  )
         2           Nb  tau(   2) = (   0.0000015  -1.7580350  -2.4862307  )
         3           Ti  tau(   3) = (   0.0000000  -5.2741024  -4.9724614  )
         4           Nb  tau(   4) = (  -3.0450027  -1.7580350  -2.4862307  )
         5           Ti  tau(   5) = (  -4.5675063  -2.6370512  -4.9724614  )
         6           Ti  tau(   6) = (   1.5225036  -4.3950862  -2.4862307  )
         7           Nb  tau(   7) = (  -1.5225021  -2.6370512  -4.9724614  )
         8           Nb  tau(   8) = (  -1.5225006  -4.3950862  -2.4862307  )

     number of k points=   217  Marzari-Vanderbilt smearing, width (Ry)=  0.0200

     Number of k-points >= 100: set verbosity='high' to print them.

     Initial potential from superposition of free atoms

     starting charge   95.98889, renormalised to  100.00000
     Starting wfcs are   92 randomized atomic wfcs

     Self-consistent Calculation

     iteration #  1     ecut=    40.00 Ry     beta= 0.60
     Davidson diagonalization with overlap
     ethr =  1.00E-02,  avg # of iterations =  3.1

     total energy              =    -911.76076272 Ry
     Harris-Foulkes estimate   =    -942.73551898 Ry
     estimated scf accuracy    <      38.88925076 Ry

[...]

     iteration # 23     ecut=    40.00 Ry     beta= 0.60
     Davidson diagonalization with overlap
     c_bands:  1 eigenvalues not converged
     c_bands:  1 eigenvalues not converged
     ethr =  1.44E-05,  avg # of iterations =  6.6

[...]

     End of self-consistent calculation

     Number of k-points >= 100: set verbosity='high' to print the bands.

     the Fermi energy is    13.8272 ev

!    total energy              =    -938.19070279 Ry
     Harris-Foulkes estimate   =    -938.19070279 Ry
     estimated scf accuracy    <          6.9E-11 Ry

     The total energy is the sum of the following terms:

     one-electron contribution =    -272.73898564 Ry
     hartree contribution      =     170.21104709 Ry
     xc contribution           =    -130.99977137 Ry
     ewald contribution        =    -704.65574085 Ry
     smearing contrib. (-TS)   =      -0.00725202 Ry

     convergence has been achieved in  36 iterations

     Forces acting on atoms (cartesian axes, Ry/au):

     atom    1 type  2   force =     0.00039477   -0.00022792    0.00000000
     atom    2 type  1   force =     0.00546174    0.00315322    0.00000000
     atom    3 type  2   force =    -0.00039099   -0.00022217    0.00000000
     atom    4 type  1   force =    -0.00546263    0.00315385    0.00000000
     atom    5 type  2   force =    -0.00000309    0.00044970    0.00000000
     atom    6 type  2   force =     0.00000164   -0.00000094    0.00000000
     atom    7 type  1   force =    -0.00000154    0.00000089    0.00000000
     atom    8 type  1   force =     0.00000010   -0.00630662    0.00000000

     Total force =     0.010952     Total SCF correction =     0.000021

     Computing stress (Cartesian axis) and pressure

          total   stress  (Ry/bohr**3)                   (kbar)     P= -123.56
  -0.00089947  -0.00000000   0.00000000       -132.32     -0.00      0.00
  -0.00000000  -0.00089947   0.00000000         -0.00   -132.32      0.00
   0.00000000   0.00000000  -0.00072092          0.00      0.00   -106.05

     BFGS Geometry Optimization

     number of scf cycles    =   1
     number of bfgs steps    =   0

     enthalpy new            =    -938.1907027924 Ry

     new trust radius        =       0.1476469155 bohr
     new conv_thr            =            1.0E-10 Ry

     new unit-cell volume =   1011.30212 a.u.^3 (   149.85951 Ang^3 )
     density =      6.23944 g/cm^3

CELL_PARAMETERS (alat=  1.88972599)
   2.976532102  -5.155504589  -0.000000000
  -5.953063673   0.000000307  -0.000000000
   0.000000000   0.000000000  -4.882842539

ATOMIC_POSITIONS (angstrom)
Ti      -2.976327364  -5.155622180  -4.882842539
Nb       0.002826815  -1.716871246  -2.441421269
Ti      -0.000201987  -5.155619358  -4.882842539
Nb      -2.979355954  -1.716870769  -2.441421269
Ti      -4.464799222  -2.577519370  -4.882842539
Ti       1.488268474  -4.296255120  -2.441421269
Nb      -1.488266579  -2.577751682  -4.882842539
Nb      -1.488264156  -4.299516752  -2.441421269

     NEW-OLD atomic charge density approx. for the potential

     Check: negative/imaginary core charge=   -0.000001    0.000000
     extrapolated charge   93.68920, renormalised to  100.00000

[...]

     enthalpy old            =    -938.1907027924 Ry
     enthalpy new            =    -938.2328116395 Ry

     CASE: enthalpy_new < enthalpy_old

[...]

     Check: negative/imaginary core charge=   -0.000001    0.000000
     extrapolated charge  100.05499, renormalised to  100.00000

[...]

     NEW-OLD atomic charge density approx. for the potential
     extrapolated charge   99.84872, renormalised to  100.00000

[...]

     Threshold (ethr) on eigenvalues was too large:
     Diagonalizing with lowered threshold

     Davidson diagonalization with overlap
     ethr =  5.55E-08,  avg # of iterations =  2.4

[...]

     CASE: enthalpy_new < enthalpy_old

     new trust radius        =       0.0002018600 bohr
     new conv_thr            =            3.3E-12 Ry

[...]

     CASE: enthalpy_new > enthalpy_old

     new trust radius        =       0.0000012687 bohr

     trust_radius < trust_radius_min

     resetting bfgs history

     new conv_thr            =            3.3E-12 Ry

[...]

     NEW-OLD atomic charge density approx. for the potential
     extrapolated charge   99.99965, renormalised to  100.00000

[...]

     number of scf cycles    =  16
     number of bfgs steps    =  14

     enthalpy old            =    -938.2455769394 Ry
     enthalpy new            =    -938.2455715596 Ry

     CASE: enthalpy_new > enthalpy_old

     new trust radius        =       0.0000003599 bohr

     trust_radius < trust_radius_min

     resetting bfgs history

     Message from routine bfgs:
     history already reset at previous step: stopping
     new conv_thr            =            3.3E-12 Ry

     new unit-cell volume =    966.33432 a.u.^3 (   143.19597 Ang^3 )
     density =      6.52978 g/cm^3

[...]

ATOMIC_POSITIONS (angstrom)
Ti      -2.889880794  -4.991306934  -4.970727159
Nb       0.017389036  -1.654895234  -2.485363579
Ti       0.006167434  -4.991287704  -4.970727159
Nb      -2.901209630  -1.654875970  -2.485363579
Ti      -4.325635460  -2.504536851  -4.970727159
Ti       1.441883681  -4.162362253  -2.485363579
Nb      -1.441897026  -2.497410558  -4.970727159
Nb      -1.441893613  -4.182447116  -2.485363579

     NEW-OLD atomic charge density approx. for the potential

[...]

     Threshold (ethr) on eigenvalues was too large:
     Diagonalizing with lowered threshold

     Davidson diagonalization with overlap
     ethr =  2.23E-13,  avg # of iterations =  1.4

[...]

     bfgs converged in  17 scf cycles and  14 bfgs steps
     (criteria: energy <  1.0E-10 Ry, force <  1.0E-05Ry/Bohr, cell <  1.0E-03kbar)

     End of BFGS Geometry Optimization

     Final enthalpy =    -938.2455715596 Ry
Begin final coordinates
     new unit-cell volume =    966.33432 a.u.^3 (   143.19597 Ang^3 )
     density =      6.52978 g/cm^3

CELL_PARAMETERS (alat=  1.88972599)
   2.883762125  -4.994831226   0.000000000
  -5.767531459  -0.000004162   0.000000000
   0.000000000  -0.000000000  -4.970727159

ATOMIC_POSITIONS (angstrom)
Ti      -2.889880794  -4.991306934  -4.970727159
Nb       0.017389036  -1.654895234  -2.485363579
Ti       0.006167434  -4.991287704  -4.970727159
Nb      -2.901209630  -1.654875970  -2.485363579
Ti      -4.325635460  -2.504536851  -4.970727159
Ti       1.441883681  -4.162362253  -2.485363579
Nb      -1.441897026  -2.497410558  -4.970727159
Nb      -1.441893613  -4.182447116  -2.485363579
End final coordinates

     A final scf calculation at the relaxed structure.
     The G-vectors are recalculated for the final unit cell
     Results may differ from those at the preceding step.

     bravais-lattice index     =            0
     lattice parameter (alat)  =       1.8897  a.u.
     unit-cell volume          =     966.3343 (a.u.)^3
     number of atoms/cell      =            8
     number of atomic types    =            2
     number of electrons       =       100.00
     number of Kohn-Sham states=           60
     kinetic-energy cutoff     =      40.0000  Ry
     charge density cutoff     =     400.0000  Ry
     convergence threshold     =      3.3E-12
     mixing beta               =       0.6000
     number of iterations used =            8  plain     mixing
     Exchange-correlation      = SLA PW PBE PBE ( 1  4  3  4 0 0)

     celldm(1)=   1.889726  celldm(2)=   0.000000  celldm(3)=   0.000000
     celldm(4)=   0.000000  celldm(5)=   0.000000  celldm(6)=   0.000000

     crystal axes: (cart. coord. in units of alat)
               a(1) = (   2.883762  -4.994831   0.000000 )
               a(2) = (  -5.767531  -0.000004   0.000000 )
               a(3) = (   0.000000  -0.000000  -4.970727 )

     reciprocal axes: (cart. coord. in units 2 pi/alat)
               b(1) = (  0.000000 -0.200207  0.000000 )
               b(2) = ( -0.173384 -0.100103 -0.000000 )
               b(3) = ( -0.000000 -0.000000 -0.201178 )

     PseudoPot. # 1 for Nb read from file:
     ./Nb.pbe-nsp-van.UPF
     MD5 check sum: 0a22fc7fb0ba19a08ca5db297a5d2854
     Pseudo is Ultrasoft + core correction, Zval = 13.0
     Generated by new atomic code, or converted to UPF format
     Using radial grid of  887 points,  6 beta functions with:
                l(1) =   0
                l(2) =   0
                l(3) =   1
                l(4) =   1
                l(5) =   2
                l(6) =   2
     Q(r) pseudized with  6 coefficients,  rinner =    1.000   1.000   1.000
                                                       1.000   1.000

     PseudoPot. # 2 for Ti read from file:
     ./Ti.pbe-sp-van_ak.UPF
     MD5 check sum: f98fea3e8887528921fefa5636a534ca
     Pseudo is Ultrasoft, Zval = 12.0
     Generated by new atomic code, or converted to UPF format
     Using radial grid of  851 points,  6 beta functions with:
                l(1) =   0
                l(2) =   0
                l(3) =   1
                l(4) =   1
                l(5) =   2
                l(6) =   2
     Q(r) pseudized with  8 coefficients,  rinner =    1.000   1.000   1.000
                                                       1.000   1.000

     atomic species   valence    mass     pseudopotential
        Nb            13.00    92.90638     Nb( 1.00)
        Ti            12.00    47.86700     Ti( 1.00)

      4 Sym. Ops. (no inversion) found
          (note:  8 additional sym.ops. were found but ignored
           their fractional translations are incommensurate with FFT grid)

   Cartesian axes

     site n.     atom                  positions (alat units)
         1           Ti  tau(   1) = (  -2.8898810  -4.9913073  -4.9707275  )
         2           Nb  tau(   2) = (   0.0173890  -1.6548954  -2.4853638  )
         3           Ti  tau(   3) = (   0.0061674  -4.9912881  -4.9707275  )
         4           Nb  tau(   4) = (  -2.9012099  -1.6548761  -2.4853638  )
         5           Ti  tau(   5) = (  -4.3256358  -2.5045370  -4.9707275  )
         6           Ti  tau(   6) = (   1.4418838  -4.1623626  -2.4853638  )
         7           Nb  tau(   7) = (  -1.4418971  -2.4974107  -4.9707275  )
         8           Nb  tau(   8) = (  -1.4418937  -4.1824474  -2.4853638  )

     number of k points=   217  Marzari-Vanderbilt smearing, width (Ry)=  0.0200

     Number of k-points >= 100: set verbosity='high' to print them.

     Initial potential from superposition of free atoms

     starting charge   95.98889, renormalised to  100.00000
     Starting wfcs are   92 randomized atomic wfcs

     Self-consistent Calculation

     iteration #  1     ecut=    40.00 Ry     beta= 0.60
     Davidson diagonalization with overlap
     c_bands:  2 eigenvalues not converged
     c_bands:  1 eigenvalues not converged
     c_bands:  1 eigenvalues not converged
     c_bands:  1 eigenvalues not converged
     c_bands:  1 eigenvalues not converged
     c_bands:  1 eigenvalues not converged
     c_bands:  1 eigenvalues not converged
     c_bands:  2 eigenvalues not converged
     c_bands:  1 eigenvalues not converged
     c_bands:  2 eigenvalues not converged
     c_bands:  1 eigenvalues not converged
     c_bands:  1 eigenvalues not converged
     c_bands:  1 eigenvalues not converged
     c_bands:  2 eigenvalues not converged
     c_bands:  1 eigenvalues not converged
     c_bands:  1 eigenvalues not converged
     c_bands:  1 eigenvalues not converged
     c_bands:  1 eigenvalues not converged
     c_bands:  1 eigenvalues not converged
     c_bands:  1 eigenvalues not converged
     c_bands:  1 eigenvalues not converged
     c_bands:  1 eigenvalues not converged
     c_bands:  1 eigenvalues not converged
     c_bands:  1 eigenvalues not converged
     c_bands:  1 eigenvalues not converged
     c_bands:  2 eigenvalues not converged
     c_bands:  1 eigenvalues not converged
     c_bands:  1 eigenvalues not converged
     c_bands:  1 eigenvalues not converged
     c_bands:  2 eigenvalues not converged
     c_bands:  2 eigenvalues not converged
     c_bands:  1 eigenvalues not converged
     c_bands:  1 eigenvalues not converged
     c_bands:  1 eigenvalues not converged
     c_bands:  1 eigenvalues not converged
     c_bands:  1 eigenvalues not converged
     c_bands:  1 eigenvalues not converged
     c_bands:  1 eigenvalues not converged
     c_bands:  1 eigenvalues not converged
     c_bands:  1 eigenvalues not converged
     c_bands:  1 eigenvalues not converged
     c_bands:  1 eigenvalues not converged
     c_bands:  1 eigenvalues not converged
     c_bands:  1 eigenvalues not converged
     c_bands:  1 eigenvalues not converged
     c_bands:  1 eigenvalues not converged
     c_bands:  1 eigenvalues not converged
     c_bands:  1 eigenvalues not converged
     c_bands:  1 eigenvalues not converged
     c_bands:  1 eigenvalues not converged
     c_bands:  1 eigenvalues not converged
     c_bands:  1 eigenvalues not converged
     c_bands:  1 eigenvalues not converged
     c_bands:  1 eigenvalues not converged
     c_bands:  1 eigenvalues not converged
     c_bands:  1 eigenvalues not converged
     c_bands:  2 eigenvalues not converged
     ethr =  1.00E-06,  avg # of iterations = 15.9

[...]

     total energy              =    -938.24095938 Ry
     Harris-Foulkes estimate   =    -938.24095938 Ry
     estimated scf accuracy    <          8.9E-12 Ry

     iteration # 36     ecut=    40.00 Ry     beta= 0.60
     Davidson diagonalization with overlap
     ethr =  1.00E-13,  avg # of iterations =  1.0

     End of self-consistent calculation

     Number of k-points >= 100: set verbosity='high' to print the bands.

     the Fermi energy is    15.6776 ev

!    total energy              =    -938.24095938 Ry
     Harris-Foulkes estimate   =    -938.24095938 Ry
     estimated scf accuracy    <          3.0E-12 Ry

     The total energy is the sum of the following terms:

     one-electron contribution =    -235.21930058 Ry
     hartree contribution      =     159.26462233 Ry
     xc contribution           =    -131.79453108 Ry
     ewald contribution        =    -730.48775082 Ry
     smearing contrib. (-TS)   =      -0.00399922 Ry

     convergence has been achieved in  36 iterations

     Forces acting on atoms (cartesian axes, Ry/au):

     atom    1 type  2   force =     0.00011465   -0.00006619    0.00000000
     atom    2 type  1   force =    -0.00001346   -0.00000787   -0.00000000
     atom    3 type  2   force =    -0.00011558   -0.00006568   -0.00000000
     atom    4 type  1   force =     0.00000942   -0.00000544    0.00000000
     atom    5 type  2   force =    -0.00000091    0.00013293   -0.00000000
     atom    6 type  2   force =     0.00000156   -0.00000090    0.00000000
     atom    7 type  1   force =     0.00000423   -0.00000244    0.00000000
     atom    8 type  1   force =     0.00000008    0.00001559   -0.00000000

     Total force =     0.000231     Total SCF correction =     0.000003

     Computing stress (Cartesian axis) and pressure

          total   stress  (Ry/bohr**3)                   (kbar)     P=   -2.83
  -0.00002383   0.00000001   0.00000000         -3.51      0.00      0.00
   0.00000001  -0.00002382   0.00000000          0.00     -3.50      0.00
  -0.00000000  -0.00000000  -0.00001007         -0.00     -0.00     -1.48

     General routines

     Parallel routines

      51h

   This run was terminated on:  18:42:16  28Jan2020

   JOB DONE.