     Program PWSCF v.6.0 (svn rev. 13079) starts on 25Apr2018 at 16:34:56

     Current dimensions of program PWSCF are:
     Max number of different atomic species (ntypx) = 10
     Max number of k-points (npk) =  40000
     Max angular momentum in pseudopotentials (lmaxx) =  3

     Subspace diagonalization in iterative solution of the eigenvalue problem:
     a serial algorithm will be used

     bravais-lattice index     =            0
     lattice parameter (alat)  =       1.8897  a.u.
     unit-cell volume          =     269.4476 (a.u.)^3
     number of atoms/cell      =            2
     number of atomic types    =            2
     number of electrons       =        25.00
     number of Kohn-Sham states=           17
     kinetic-energy cutoff     =      40.0000  Ry
     charge density cutoff     =     400.0000  Ry
     convergence threshold     =      1.0E-10
     mixing beta               =       0.6000
     number of iterations used =            8  plain     mixing
     Exchange-correlation      = SLA  PW   PBE  PBE ( 1  4  3  4 0 0)
     nstep                     =           50

     celldm(1)=   1.889726  celldm(2)=   0.000000  celldm(3)=   0.000000
     celldm(4)=   0.000000  celldm(5)=   0.000000  celldm(6)=   0.000000

     crystal axes: (cart. coord. in units of alat)
               a(1) = (   1.522502  -2.637051   0.000000 )
               a(2) = (  -3.045004   0.000000   0.000000 )
               a(3) = (   0.000000   0.000000  -4.972461 )

     reciprocal axes: (cart. coord. in units 2 pi/alat)
               b(1) = ( -0.000000 -0.379211 -0.000000 )
               b(2) = ( -0.328407 -0.189606 -0.000000 )
               b(3) = ( -0.000000 -0.000000 -0.201108 )

     PseudoPot. # 1 for Nb read from file:
     ./Nb.pbe-nsp-van.UPF
     MD5 check sum: 0a22fc7fb0ba19a08ca5db297a5d2854
     Pseudo is Ultrasoft + core correction, Zval = 13.0
     Generated by new atomic code, or converted to UPF format
     Using radial grid of  887 points,  6 beta functions with:
                l(1) =   0
                l(2) =   0
                l(3) =   1
                l(4) =   1
                l(5) =   2
                l(6) =   2
     Q(r) pseudized with  6 coefficients,  rinner =    1.000   1.000   1.000
                                                       1.000   1.000

     PseudoPot. # 2 for Ti read from file:
     ./Ti.pbe-sp-van_ak.UPF
     MD5 check sum: f98fea3e8887528921fefa5636a534ca
     Pseudo is Ultrasoft, Zval = 12.0
     Generated by new atomic code, or converted to UPF format
     Using radial grid of  851 points,  6 beta functions with:
                l(1) =   0
                l(2) =   0
                l(3) =   1
                l(4) =   1
                l(5) =   2
                l(6) =   2
     Q(r) pseudized with  8 coefficients,  rinner =    1.000   1.000   1.000
                                                       1.000   1.000

     atomic species   valence    mass     pseudopotential
        Nb            13.00    92.90638     Nb( 1.00)
        Ti            12.00    47.86700     Ti( 1.00)

     12 Sym. Ops. (no inversion) found

   Cartesian axes

     site n.     atom                  positions (alat units)
         1           Ti  tau(   1) = (  -1.5225021  -2.6370512  -4.9724614  )
         2           Nb  tau(   2) = (   0.0000015  -1.7580350  -2.4862307  )

     number of k points=   280  Marzari-Vanderbilt smearing, width (Ry)=  0.0200

     Number of k-points >= 100: set verbosity='high' to print them.

     Initial potential from superposition of free atoms

     starting charge   23.99722, renormalised to   25.00000
     Starting wfc are   23 randomized atomic wfcs

     Self-consistent Calculation

     iteration #  1     ecut=    40.00 Ry     beta=0.60
     Davidson diagonalization with overlap
     ethr =  1.00E-02,  avg # of iterations =  3.0

     total energy              =    -228.42355354 Ry
     Harris-Foulkes estimate   =    -235.65589728 Ry
     estimated scf accuracy    <       9.09899505 Ry

[...]

     End of self-consistent calculation

     Number of k-points >= 100: set verbosity='high' to print the bands.

     the Fermi energy is    13.8080 ev

!    total energy              =    -234.55037464 Ry
     Harris-Foulkes estimate   =    -234.55037464 Ry
     estimated scf accuracy    <          5.2E-11 Ry

     The total energy is the sum of the following terms:

     one-electron contribution =     -68.16586699 Ry
     hartree contribution      =      42.52949451 Ry
     xc contribution           =     -32.74659335 Ry
     ewald contribution        =    -176.16613289 Ry
     smearing contrib. (-TS)   =      -0.00127591 Ry

     convergence has been achieved in  33 iterations

     Forces acting on atoms (Ry/au):

     atom    1 type  2   force =     0.00000000    0.00000000    0.00000000
     atom    2 type  1   force =    -0.00000000   -0.00000000   -0.00000000

     Total force =     0.000000     Total SCF correction =     0.000000

     entering subroutine stress ...

          total   stress  (Ry/bohr**3)                   (kbar)     P= -126.23
  -0.00090948   0.00000000   0.00000000       -133.79      0.00      0.00
   0.00000000  -0.00090948   0.00000000          0.00   -133.79      0.00
   0.00000000   0.00000000  -0.00075533          0.00      0.00   -111.11

     BFGS Geometry Optimization

     number of scf cycles    =   1
     number of bfgs steps    =   0

     enthalpy new            =    -234.5503746368 Ry

     new trust radius        =       0.0746446123 bohr
     new conv_thr            =            1.0E-10 Ry

     new unit-cell volume =    252.47476 a.u.^3 (    37.41290 Ang^3 )

CELL_PARAMETERS (alat=  1.88972599)
   1.487885018  -2.577092632   0.000000000
  -2.975770036  -0.000000000   0.000000000
   0.000000000   0.000000000  -4.878564563

ATOMIC_POSITIONS (angstrom)
Ti      -1.487885018  -2.577092632  -4.878564563
Nb       0.000001488  -1.718062614  -2.439282281

     NEW-OLD atomic charge density approx. for the potential

     Check: negative/imaginary core charge=   -0.000001    0.000000
     extrapolated charge   23.38677, renormalised to   25.00000

[...]

     iteration #  1     ecut=    40.00 Ry     beta=0.60
     Davidson diagonalization with overlap
     c_bands:  1 eigenvalues not converged
     c_bands:  1 eigenvalues not converged
     c_bands:  1 eigenvalues not converged
     c_bands:  1 eigenvalues not converged
     c_bands:  1 eigenvalues not converged
     c_bands:  1 eigenvalues not converged
     c_bands:  1 eigenvalues not converged
     c_bands:  1 eigenvalues not converged
     c_bands:  1 eigenvalues not converged
     c_bands:  1 eigenvalues not converged
     ethr =  1.00E-06,  avg # of iterations = 11.8

[...]

     enthalpy old            =    -234.5503746368 Ry
     enthalpy new            =    -234.5612732468 Ry

     CASE: enthalpy_new < enthalpy_old

[...]

     Threshold (ethr) on eigenvalues was too large:
     Diagonalizing with lowered threshold

     Davidson diagonalization with overlap
     ethr =  6.25E-10,  avg # of iterations =  1.3

[...]

     CASE: enthalpy_new < enthalpy_old

     small trust_radius: resetting bfgs history

     new trust radius        =       0.0000019565 bohr
     new conv_thr            =            1.0E-12 Ry

[...]

     Check: negative/imaginary core charge=   -0.000001    0.000000
     extrapolated charge   25.00000, renormalised to   25.00000

[...]

     number of scf cycles    =  10
     number of bfgs steps    =   9

     enthalpy old            =    -234.5638056665 Ry
     enthalpy new            =    -234.5638056665 Ry

     CASE: enthalpy_new > enthalpy_old

     new trust radius        =       0.0000000594 bohr

     trust_radius < trust_radius_min

     resetting bfgs history

     Message from routine bfgs:
     history already reset at previous step: stopping
     new conv_thr            =            1.0E-12 Ry

     new unit-cell volume =    241.53452 a.u.^3 (    35.79172 Ang^3 )

[...]

ATOMIC_POSITIONS (angstrom)
Ti      -1.454159472  -2.518678278  -4.886163231
Nb       0.000001455  -1.679119692  -2.443081615

     NEW-OLD atomic charge density approx. for the potential

     Check: negative/imaginary core charge=   -0.000001    0.000000

[...]

     Threshold (ethr) on eigenvalues was too large:
     Diagonalizing with lowered threshold

     Davidson diagonalization with overlap
     ethr =  2.13E-13,  avg # of iterations =  1.0

[...]

     bfgs converged in  11 scf cycles and   9 bfgs steps
     (criteria: energy <  1.0E-10, force <  1.0E-05, cell <  1.0E-03)

     End of BFGS Geometry Optimization

     Final enthalpy =    -234.5638056666 Ry
Begin final coordinates
     new unit-cell volume =    241.53452 a.u.^3 (    35.79172 Ang^3 )

CELL_PARAMETERS (alat=  1.88972599)
   1.454159472  -2.518678278  -0.000000000
  -2.908318944  -0.000000000   0.000000000
  -0.000000000  -0.000000000  -4.886163231

ATOMIC_POSITIONS (angstrom)
Ti      -1.454159472  -2.518678278  -4.886163231
Nb       0.000001455  -1.679119692  -2.443081615
End final coordinates

     A final scf calculation at the relaxed structure.
     The G-vectors are recalculated for the final unit cell
     Results may differ from those at the preceding step.

   Info: using nr1, nr2, nr3 values from input

   Info: using nr1, nr2, nr3 values from input

     bravais-lattice index     =            0
     lattice parameter (alat)  =       1.8897  a.u.
     unit-cell volume          =     241.5345 (a.u.)^3
     number of atoms/cell      =            2
     number of atomic types    =            2
     number of electrons       =        25.00
     number of Kohn-Sham states=           17
     kinetic-energy cutoff     =      40.0000  Ry
     charge density cutoff     =     400.0000  Ry
     convergence threshold     =      1.0E-12
     mixing beta               =       0.6000
     number of iterations used =            8  plain     mixing
     Exchange-correlation      = SLA  PW   PBE  PBE ( 1  4  3  4 0 0)

     celldm(1)=   1.889726  celldm(2)=   0.000000  celldm(3)=   0.000000
     celldm(4)=   0.000000  celldm(5)=   0.000000  celldm(6)=   0.000000

     crystal axes: (cart. coord. in units of alat)
               a(1) = (   1.454159  -2.518678  -0.000000 )
               a(2) = (  -2.908319  -0.000000   0.000000 )
               a(3) = (  -0.000000  -0.000000  -4.886163 )

     reciprocal axes: (cart. coord. in units 2 pi/alat)
               b(1) = (  0.000000 -0.397034  0.000000 )
               b(2) = ( -0.343841 -0.198517  0.000000 )
               b(3) = ( -0.000000 -0.000000 -0.204660 )

     PseudoPot. # 1 for Nb read from file:
     ./Nb.pbe-nsp-van.UPF
     MD5 check sum: 0a22fc7fb0ba19a08ca5db297a5d2854
     Pseudo is Ultrasoft + core correction, Zval = 13.0
     Generated by new atomic code, or converted to UPF format
     Using radial grid of  887 points,  6 beta functions with:
                l(1) =   0
                l(2) =   0
                l(3) =   1
                l(4) =   1
                l(5) =   2
                l(6) =   2
     Q(r) pseudized with  6 coefficients,  rinner =    1.000   1.000   1.000
                                                       1.000   1.000

     PseudoPot. # 2 for Ti read from file:
     ./Ti.pbe-sp-van_ak.UPF
     MD5 check sum: f98fea3e8887528921fefa5636a534ca
     Pseudo is Ultrasoft, Zval = 12.0
     Generated by new atomic code, or converted to UPF format
     Using radial grid of  851 points,  6 beta functions with:
                l(1) =   0
                l(2) =   0
                l(3) =   1
                l(4) =   1
                l(5) =   2
                l(6) =   2
     Q(r) pseudized with  8 coefficients,  rinner =    1.000   1.000   1.000
                                                       1.000   1.000

     atomic species   valence    mass     pseudopotential
        Nb            13.00    92.90638     Nb( 1.00)
        Ti            12.00    47.86700     Ti( 1.00)

     12 Sym. Ops. (no inversion) found

   Cartesian axes

     site n.     atom                  positions (alat units)
         1           Ti  tau(   1) = (  -1.4541596  -2.5186785  -4.8861636  )
         2           Nb  tau(   2) = (   0.0000015  -1.6791198  -2.4430818  )

     number of k points=   280  Marzari-Vanderbilt smearing, width (Ry)=  0.0200

     Number of k-points >= 100: set verbosity='high' to print them.

     Initial potential from superposition of free atoms

     starting charge   23.99722, renormalised to   25.00000
     Starting wfc are   23 randomized atomic wfcs

     Self-consistent Calculation

     iteration #  1     ecut=    40.00 Ry     beta=0.60
     Davidson diagonalization with overlap
     c_bands:  1 eigenvalues not converged
     c_bands:  1 eigenvalues not converged
     ethr =  1.00E-06,  avg # of iterations = 10.3

[...]

     total energy              =    -234.56261104 Ry
     Harris-Foulkes estimate   =    -234.56261104 Ry
     estimated scf accuracy    <          5.3E-12 Ry

     iteration # 25     ecut=    40.00 Ry     beta=0.60
     Davidson diagonalization with overlap
     ethr =  1.00E-13,  avg # of iterations =  1.0

     End of self-consistent calculation

     Number of k-points >= 100: set verbosity='high' to print the bands.

     the Fermi energy is    15.6880 ev

!    total energy              =    -234.56261104 Ry
     Harris-Foulkes estimate   =    -234.56261104 Ry
     estimated scf accuracy    <          6.6E-13 Ry

     The total energy is the sum of the following terms:

     one-electron contribution =     -58.67271855 Ry
     hartree contribution      =      39.73452178 Ry
     xc contribution           =     -32.94267654 Ry
     ewald contribution        =    -182.68104117 Ry
     smearing contrib. (-TS)   =      -0.00069655 Ry

     convergence has been achieved in  25 iterations

     Forces acting on atoms (Ry/au):

     atom    1 type  2   force =     0.00000000   -0.00000000    0.00000000
     atom    2 type  1   force =     0.00000000   -0.00000000    0.00000000

     Total force =     0.000000     Total SCF correction =     0.000000

     entering subroutine stress ...

          total   stress  (Ry/bohr**3)                   (kbar)     P=   -2.85
  -0.00002156  -0.00000000   0.00000000         -3.17     -0.00      0.00
  -0.00000000  -0.00002156   0.00000000         -0.00     -3.17      0.00
   0.00000000   0.00000000  -0.00001497          0.00      0.00     -2.20

     General routines

     Parallel routines

   This run was terminated on:  16:55:38  25Apr2018

   JOB DONE.