     Program PWSCF v.6.3MaX starts on  5Feb2020 at 16:56:16

     R & G space division:  proc/nbgrp/npool/nimage =       4
     Waiting for input...
     Reading input from standard input

     Current dimensions of program PWSCF are:
     Max number of different atomic species (ntypx) = 10
     Max number of k-points (npk) =  40000
     Max angular momentum in pseudopotentials (lmaxx) =  3
     Message from routine iosys:
     minimal I/O required, wf_collect reset to FALSE

     Subspace diagonalization in iterative solution of the eigenvalue problem:
     a serial algorithm will be used

     bravais-lattice index     =            0
     lattice parameter (alat)  =       1.8897  a.u.
     unit-cell volume          =    1026.6786 (a.u.)^3
     number of atoms/cell      =            7
     number of atomic types    =            2
     number of electrons       =        88.00
     number of Kohn-Sham states=           53
     kinetic-energy cutoff     =      50.0000  Ry
     charge density cutoff     =     500.0000  Ry
     convergence threshold     =      1.0E-10
     mixing beta               =       0.6000
     number of iterations used =            8  plain     mixing
     Exchange-correlation      = SLA PW PBE PBE ( 1  4  3  4 0 0)
     nstep                     =           50

     celldm(1)=   1.889726  celldm(2)=   0.000000  celldm(3)=   0.000000
     celldm(4)=   0.000000  celldm(5)=   0.000000  celldm(6)=   0.000000

     crystal axes: (cart. coord. in units of alat)
               a(1) = (   5.274095  -1.758031  -1.758031 )
               a(2) = (   1.758031  -5.274095  -1.758031 )
               a(3) = (  -1.758031   1.758031  -5.274095 )

     reciprocal axes: (cart. coord. in units 2 pi/alat)
               b(1) = (  0.203149  0.081260 -0.040630 )
               b(2) = ( -0.081260 -0.203149 -0.040630 )
               b(3) = ( -0.040630  0.040630 -0.162519 )

     PseudoPot. # 1 for Nb read from file:
     ./Nb.pbe-nsp-van.UPF
     MD5 check sum: 0a22fc7fb0ba19a08ca5db297a5d2854
     Pseudo is Ultrasoft + core correction, Zval = 13.0
     Generated by new atomic code, or converted to UPF format
     Using radial grid of  887 points,  6 beta functions with:
                l(1) =   0
                l(2) =   0
                l(3) =   1
                l(4) =   1
                l(5) =   2
                l(6) =   2
     Q(r) pseudized with  6 coefficients,  rinner =    1.000   1.000   1.000
                                                       1.000   1.000

     PseudoPot. # 2 for Ti read from file:
     ./Ti.pbe-sp-van_ak.UPF
     MD5 check sum: f98fea3e8887528921fefa5636a534ca
     Pseudo is Ultrasoft, Zval = 12.0
     Generated by new atomic code, or converted to UPF format
     Using radial grid of  851 points,  6 beta functions with:
                l(1) =   0
                l(2) =   0
                l(3) =   1
                l(4) =   1
                l(5) =   2
                l(6) =   2
     Q(r) pseudized with  8 coefficients,  rinner =    1.000   1.000   1.000
                                                       1.000   1.000

     atomic species   valence    mass     pseudopotential
        Nb            13.00    92.90638     Nb( 1.00)
        Ti            12.00    47.86700     Ti( 1.00)

      2 Sym. Ops. (no inversion) found

   Cartesian axes

     site n.     atom                  positions (alat units)
         1           Ti  tau(   1) = (   0.0000000   0.0000000  -3.5160633  )
         2           Ti  tau(   2) = (   5.2740949  -5.2740949  -5.2740949  )
         3           Nb  tau(   3) = (   3.5160633  -3.5160633  -3.5160633  )
         4           Ti  tau(   4) = (   1.7580316  -1.7580316  -1.7580316  )
         5           Nb  tau(   5) = (   5.2740949  -5.2740949  -8.7901582  )
         6           Nb  tau(   6) = (   3.5160633  -3.5160633  -7.0321265  )
         7           Nb  tau(   7) = (   1.7580316  -1.7580316  -5.2740949  )

     number of k points=   366  Marzari-Vanderbilt smearing, width (Ry)=  0.0200

     Number of k-points >= 100: set verbosity='high' to print them.

     Initial potential from superposition of free atoms

     starting charge   84.98893, renormalised to   88.00000
     Starting wfcs are   82 randomized atomic wfcs

     Self-consistent Calculation

     iteration #  1     ecut=    50.00 Ry     beta= 0.60
     Davidson diagonalization with overlap
     ethr =  1.00E-02,  avg # of iterations =  3.0

     total energy              =    -793.52591305 Ry
     Harris-Foulkes estimate   =    -825.30734629 Ry
     estimated scf accuracy    <      39.91113987 Ry

[...]

     iteration # 19     ecut=    50.00 Ry     beta= 0.60
     Davidson diagonalization with overlap
     c_bands:  1 eigenvalues not converged
     c_bands:  1 eigenvalues not converged
     c_bands:  1 eigenvalues not converged
     c_bands:  1 eigenvalues not converged
     c_bands:  1 eigenvalues not converged
     ethr =  2.59E-06,  avg # of iterations =  8.8

[...]

     End of self-consistent calculation

     Number of k-points >= 100: set verbosity='high' to print the bands.

     the Fermi energy is    12.4889 ev

!    total energy              =    -821.51443934 Ry
     Harris-Foulkes estimate   =    -821.51443934 Ry
     estimated scf accuracy    <          7.5E-11 Ry

     The total energy is the sum of the following terms:

     one-electron contribution =    -250.66842269 Ry
     hartree contribution      =     151.60329519 Ry
     xc contribution           =    -116.11467091 Ry
     ewald contribution        =    -606.33395099 Ry
     smearing contrib. (-TS)   =      -0.00068994 Ry

     convergence has been achieved in  38 iterations

     Forces acting on atoms (cartesian axes, Ry/au):

     atom    1 type  2   force =    -0.00023271    0.00023271   -0.01440747
     atom    2 type  2   force =    -0.00574196    0.00574196   -0.00154920
     atom    3 type  1   force =     0.00048821   -0.00048821    0.01139361
     atom    4 type  2   force =     0.00626356   -0.00626356    0.01458483
     atom    5 type  1   force =    -0.00838575    0.00838575    0.00797721
     atom    6 type  1   force =    -0.00576947    0.00576947   -0.00874419
     atom    7 type  1   force =     0.01337812   -0.01337812   -0.00925479

     Total force =     0.038580     Total SCF correction =     0.000024

     Computing stress (Cartesian axis) and pressure

          total   stress  (Ry/bohr**3)                   (kbar)     P= -203.50
  -0.00137967   0.00001505  -0.00000063       -202.96      2.21     -0.09
   0.00001505  -0.00137967   0.00000063          2.21   -202.96      0.09
  -0.00000063   0.00000063  -0.00139071         -0.09      0.09   -204.58

     BFGS Geometry Optimization

     number of scf cycles    =   1
     number of bfgs steps    =   0

     enthalpy new            =    -821.5144393396 Ry

     new trust radius        =       0.2228051933 bohr
     new conv_thr            =            1.0E-10 Ry

     new unit-cell volume =    923.80056 a.u.^3 (   136.89312 Ang^3 )
     density =      6.24979 g/cm^3

CELL_PARAMETERS (alat=  1.88972599)
   5.091548225  -1.695437070  -1.697019864
   1.695437070  -5.091548225  -1.697019864
  -1.696648883   1.696648883  -5.090669832

ATOMIC_POSITIONS (angstrom)
Ti      -0.000063049   0.000063049  -3.401176037
Ti       5.087348176  -5.087348176  -5.091683755
Nb       3.393769733  -3.393769733  -3.388108761
Ti       1.699959085  -1.699959085  -1.689514664
Nb       5.086053528  -5.086053528  -8.480634829
Nb       3.390629622  -3.390629622  -6.792211629
Nb       1.703648552  -1.703648552  -5.095508569

     NEW-OLD atomic charge density approx. for the potential
     extrapolated charge   78.53530, renormalised to   88.00000

[...]

     enthalpy old            =    -821.5144393396 Ry
     enthalpy new            =    -821.6326287400 Ry

     CASE: enthalpy_new < enthalpy_old

[...]

     Threshold (ethr) on eigenvalues was too large:
     Diagonalizing with lowered threshold

     Davidson diagonalization with overlap
     ethr =  9.39E-08,  avg # of iterations =  1.9

[...]

     small trust_radius: resetting bfgs history

[...]

     number of scf cycles    =  25
     number of bfgs steps    =  24

     enthalpy old            =    -821.6790070550 Ry
     enthalpy new            =    -821.6790070604 Ry

     CASE: enthalpy_new < enthalpy_old

     WARNING: bfgs curvature condition failed, Theta= 0.960
     Message from routine bfgs:
     history already reset at previous step: stopping
     small trust_radius: resetting bfgs history

     new trust radius        =       0.0000398494 bohr
     new conv_thr            =            3.9E-12 Ry

     new unit-cell volume =    834.68465 a.u.^3 (   123.68750 Ang^3 )
     density =      6.91706 g/cm^3

[...]

ATOMIC_POSITIONS (angstrom)
Ti       0.013355015  -0.013355015  -3.347072789
Ti       4.870204232  -4.870204232  -4.915352549
Nb       3.263276821  -3.263276821  -3.259691729
Ti       1.657752713  -1.657752713  -1.584199024
Nb       4.869293428  -4.869293428  -8.153926198
Nb       3.253983867  -3.253983867  -6.624934509
Nb       1.702842793  -1.702842793  -4.886420517

     NEW-OLD atomic charge density approx. for the potential
     extrapolated charge   87.99980, renormalised to   88.00000

[...]

     Threshold (ethr) on eigenvalues was too large:
     Diagonalizing with lowered threshold

     Davidson diagonalization with overlap
     ethr =  7.85E-12,  avg # of iterations =  3.1

[...]

     bfgs converged in  26 scf cycles and  25 bfgs steps
     (criteria: energy <  1.0E-10 Ry, force <  1.0E-05Ry/Bohr, cell <  1.0E-03kbar)

     End of BFGS Geometry Optimization

     Final enthalpy =    -821.6790070642 Ry
Begin final coordinates
     new unit-cell volume =    834.68465 a.u.^3 (   123.68750 Ang^3 )
     density =      6.91706 g/cm^3

CELL_PARAMETERS (alat=  1.88972599)
   4.921195909  -1.610410493  -1.645770854
   1.610410493  -4.921195909  -1.645770854
  -1.623929185   1.623929185  -4.901357620

ATOMIC_POSITIONS (angstrom)
Ti       0.013355015  -0.013355015  -3.347072789
Ti       4.870204232  -4.870204232  -4.915352549
Nb       3.263276821  -3.263276821  -3.259691729
Ti       1.657752713  -1.657752713  -1.584199024
Nb       4.869293428  -4.869293428  -8.153926198
Nb       3.253983867  -3.253983867  -6.624934509
Nb       1.702842793  -1.702842793  -4.886420517
End final coordinates

     A final scf calculation at the relaxed structure.
     The G-vectors are recalculated for the final unit cell
     Results may differ from those at the preceding step.

     bravais-lattice index     =            0
     lattice parameter (alat)  =       1.8897  a.u.
     unit-cell volume          =     834.6847 (a.u.)^3
     number of atoms/cell      =            7
     number of atomic types    =            2
     number of electrons       =        88.00
     number of Kohn-Sham states=           53
     kinetic-energy cutoff     =      50.0000  Ry
     charge density cutoff     =     500.0000  Ry
     convergence threshold     =      3.9E-12
     mixing beta               =       0.6000
     number of iterations used =            8  plain     mixing
     Exchange-correlation      = SLA PW PBE PBE ( 1  4  3  4 0 0)

     celldm(1)=   1.889726  celldm(2)=   0.000000  celldm(3)=   0.000000
     celldm(4)=   0.000000  celldm(5)=   0.000000  celldm(6)=   0.000000

     crystal axes: (cart. coord. in units of alat)
               a(1) = (   4.921196  -1.610410  -1.645771 )
               a(2) = (   1.610410  -4.921196  -1.645771 )
               a(3) = (  -1.623929   1.623929  -4.901358 )

     reciprocal axes: (cart. coord. in units 2 pi/alat)
               b(1) = (  0.216620  0.085423 -0.043468 )
               b(2) = ( -0.085423 -0.216620 -0.043468 )
               b(3) = ( -0.044053  0.044053 -0.174834 )

     PseudoPot. # 1 for Nb read from file:
     ./Nb.pbe-nsp-van.UPF
     MD5 check sum: 0a22fc7fb0ba19a08ca5db297a5d2854
     Pseudo is Ultrasoft + core correction, Zval = 13.0
     Generated by new atomic code, or converted to UPF format
     Using radial grid of  887 points,  6 beta functions with:
                l(1) =   0
                l(2) =   0
                l(3) =   1
                l(4) =   1
                l(5) =   2
                l(6) =   2
     Q(r) pseudized with  6 coefficients,  rinner =    1.000   1.000   1.000
                                                       1.000   1.000

     PseudoPot. # 2 for Ti read from file:
     ./Ti.pbe-sp-van_ak.UPF
     MD5 check sum: f98fea3e8887528921fefa5636a534ca
     Pseudo is Ultrasoft, Zval = 12.0
     Generated by new atomic code, or converted to UPF format
     Using radial grid of  851 points,  6 beta functions with:
                l(1) =   0
                l(2) =   0
                l(3) =   1
                l(4) =   1
                l(5) =   2
                l(6) =   2
     Q(r) pseudized with  8 coefficients,  rinner =    1.000   1.000   1.000
                                                       1.000   1.000

     atomic species   valence    mass     pseudopotential
        Nb            13.00    92.90638     Nb( 1.00)
        Ti            12.00    47.86700     Ti( 1.00)

      2 Sym. Ops. (no inversion) found

   Cartesian axes

     site n.     atom                  positions (alat units)
         1           Ti  tau(   1) = (   0.0133550  -0.0133550  -3.3470730  )
         2           Ti  tau(   2) = (   4.8702046  -4.8702046  -4.9153529  )
         3           Nb  tau(   3) = (   3.2632771  -3.2632771  -3.2596920  )
         4           Ti  tau(   4) = (   1.6577528  -1.6577528  -1.5841991  )
         5           Nb  tau(   5) = (   4.8692938  -4.8692938  -8.1539268  )
         6           Nb  tau(   6) = (   3.2539841  -3.2539841  -6.6249350  )
         7           Nb  tau(   7) = (   1.7028429  -1.7028429  -4.8864209  )

     number of k points=   366  Marzari-Vanderbilt smearing, width (Ry)=  0.0200

     Number of k-points >= 100: set verbosity='high' to print them.

     Initial potential from superposition of free atoms

     starting charge   84.98893, renormalised to   88.00000
     Starting wfcs are   82 randomized atomic wfcs

     Self-consistent Calculation

     iteration #  1     ecut=    50.00 Ry     beta= 0.60
     Davidson diagonalization with overlap
     c_bands:  1 eigenvalues not converged
     c_bands:  1 eigenvalues not converged
     c_bands:  1 eigenvalues not converged
     c_bands:  1 eigenvalues not converged
     c_bands:  1 eigenvalues not converged
     c_bands:  1 eigenvalues not converged
     c_bands:  1 eigenvalues not converged
     c_bands:  1 eigenvalues not converged
     c_bands:  1 eigenvalues not converged
     c_bands:  1 eigenvalues not converged
     c_bands:  1 eigenvalues not converged
     c_bands:  1 eigenvalues not converged
     c_bands:  1 eigenvalues not converged
     c_bands:  1 eigenvalues not converged
     c_bands:  1 eigenvalues not converged
     c_bands:  1 eigenvalues not converged
     c_bands:  1 eigenvalues not converged
     c_bands:  1 eigenvalues not converged
     c_bands:  1 eigenvalues not converged
     c_bands:  1 eigenvalues not converged
     c_bands:  1 eigenvalues not converged
     c_bands:  1 eigenvalues not converged
     c_bands:  1 eigenvalues not converged
     c_bands:  1 eigenvalues not converged
     c_bands:  1 eigenvalues not converged
     c_bands:  1 eigenvalues not converged
     c_bands:  1 eigenvalues not converged
     c_bands:  1 eigenvalues not converged
     c_bands:  1 eigenvalues not converged
     c_bands:  2 eigenvalues not converged
     c_bands:  1 eigenvalues not converged
     c_bands:  1 eigenvalues not converged
     c_bands:  1 eigenvalues not converged
     c_bands:  1 eigenvalues not converged
     c_bands:  2 eigenvalues not converged
     c_bands:  2 eigenvalues not converged
     c_bands:  1 eigenvalues not converged
     c_bands:  1 eigenvalues not converged
     c_bands:  1 eigenvalues not converged
     c_bands:  1 eigenvalues not converged
     c_bands:  1 eigenvalues not converged
     c_bands:  3 eigenvalues not converged
     c_bands:  1 eigenvalues not converged
     c_bands:  1 eigenvalues not converged
     c_bands:  1 eigenvalues not converged
     c_bands:  1 eigenvalues not converged
     c_bands:  1 eigenvalues not converged
     c_bands:  2 eigenvalues not converged
     c_bands:  1 eigenvalues not converged
     c_bands:  1 eigenvalues not converged
     c_bands:  1 eigenvalues not converged
     c_bands:  1 eigenvalues not converged
     c_bands:  1 eigenvalues not converged
     c_bands:  1 eigenvalues not converged
     c_bands:  1 eigenvalues not converged
     c_bands:  1 eigenvalues not converged
     c_bands:  1 eigenvalues not converged
     c_bands:  1 eigenvalues not converged
     c_bands:  1 eigenvalues not converged
     c_bands:  2 eigenvalues not converged
[...]
     c_bands:  1 eigenvalues not converged
     c_bands:  1 eigenvalues not converged
     c_bands:  1 eigenvalues not converged
     c_bands:  1 eigenvalues not converged
     c_bands:  2 eigenvalues not converged
     c_bands:  1 eigenvalues not converged
     c_bands:  1 eigenvalues not converged
     c_bands:  1 eigenvalues not converged
     c_bands:  1 eigenvalues not converged
     c_bands:  1 eigenvalues not converged
     c_bands:  1 eigenvalues not converged
     c_bands:  1 eigenvalues not converged
     c_bands:  1 eigenvalues not converged
     c_bands:  1 eigenvalues not converged
     c_bands:  1 eigenvalues not converged
     ethr =  1.00E-06,  avg # of iterations = 16.8

[...]

     total energy              =    -821.67820361 Ry
     Harris-Foulkes estimate   =    -821.67820361 Ry
     estimated scf accuracy    <          2.1E-11 Ry

     iteration # 34     ecut=    50.00 Ry     beta= 0.60
     Davidson diagonalization with overlap
     ethr =  1.00E-13,  avg # of iterations =  1.1

     End of self-consistent calculation

     Number of k-points >= 100: set verbosity='high' to print the bands.

     the Fermi energy is    16.0013 ev

!    total energy              =    -821.67820361 Ry
     Harris-Foulkes estimate   =    -821.67820361 Ry
     estimated scf accuracy    <          1.2E-12 Ry

     The total energy is the sum of the following terms:

     one-electron contribution =    -188.60104281 Ry
     hartree contribution      =     133.36004669 Ry
     xc contribution           =    -117.39640136 Ry
     ewald contribution        =    -649.04114739 Ry
     smearing contrib. (-TS)   =       0.00034126 Ry

     convergence has been achieved in  34 iterations

     Forces acting on atoms (cartesian axes, Ry/au):

     atom    1 type  2   force =    -0.00000026    0.00000026   -0.00000835
     atom    2 type  2   force =     0.00000920   -0.00000920   -0.00000197
     atom    3 type  1   force =    -0.00000277    0.00000277    0.00001303
     atom    4 type  2   force =     0.00000129   -0.00000129    0.00004281
     atom    5 type  1   force =    -0.00000196    0.00000196    0.00001014
     atom    6 type  1   force =    -0.00001417    0.00001417   -0.00001632
     atom    7 type  1   force =     0.00000869   -0.00000869   -0.00003934

     Total force =     0.000069     Total SCF correction =     0.000004

     Computing stress (Cartesian axis) and pressure

          total   stress  (Ry/bohr**3)                   (kbar)     P=   -1.00
  -0.00000683  -0.00000015   0.00000004         -1.00     -0.02      0.01
  -0.00000015  -0.00000683  -0.00000004         -0.02     -1.00     -0.01
   0.00000004  -0.00000004  -0.00000666          0.01     -0.01     -0.98

     General routines

     Parallel routines

      34h

   This run was terminated on:   6:30:17   6Feb2020

   JOB DONE.