     Program PWSCF v.6.3MaX starts on 24Jan2020 at  9:32:36

     R & G space division:  proc/nbgrp/npool/nimage =       4
     Waiting for input...
     Reading input from standard input

     Current dimensions of program PWSCF are:
     Max number of different atomic species (ntypx) = 10
     Max number of k-points (npk) =  40000
     Max angular momentum in pseudopotentials (lmaxx) =  3
     Message from routine iosys:
     minimal I/O required, wf_collect reset to FALSE

     Subspace diagonalization in iterative solution of the eigenvalue problem:
     a serial algorithm will be used

     bravais-lattice index     =            0
     lattice parameter (alat)  =       1.8897  a.u.
     unit-cell volume          =     808.3427 (a.u.)^3
     number of atoms/cell      =            6
     number of atomic types    =            2
     number of electrons       =        73.00
     number of Kohn-Sham states=           44
     kinetic-energy cutoff     =      40.0000  Ry
     charge density cutoff     =     400.0000  Ry
     convergence threshold     =      1.0E-10
     mixing beta               =       0.6000
     number of iterations used =            8  plain     mixing
     Exchange-correlation      = SLA PW PBE PBE ( 1  4  3  4 0 0)
     nstep                     =           50

     celldm(1)=   1.889726  celldm(2)=   0.000000  celldm(3)=   0.000000
     celldm(4)=   0.000000  celldm(5)=   0.000000  celldm(6)=   0.000000

     crystal axes: (cart. coord. in units of alat)
               a(1) = (  -1.522502  -2.637051   0.000000 )
               a(2) = (   3.045004   0.000000   0.000000 )
               a(3) = (   0.000000   0.000000  14.917383 )

     reciprocal axes: (cart. coord. in units 2 pi/alat)
               b(1) = (  0.000000 -0.379211  0.000000 )
               b(2) = (  0.328407 -0.189606  0.000000 )
               b(3) = (  0.000000  0.000000  0.067036 )

     PseudoPot. # 1 for Nb read from file:
     ./Nb.pbe-nsp-van.UPF
     MD5 check sum: 0a22fc7fb0ba19a08ca5db297a5d2854
     Pseudo is Ultrasoft + core correction, Zval = 13.0
     Generated by new atomic code, or converted to UPF format
     Using radial grid of  887 points,  6 beta functions with:
                l(1) =   0
                l(2) =   0
                l(3) =   1
                l(4) =   1
                l(5) =   2
                l(6) =   2
     Q(r) pseudized with  6 coefficients,  rinner =    1.000   1.000   1.000
                                                       1.000   1.000

     PseudoPot. # 2 for Ti read from file:
     ./Ti.pbe-sp-van_ak.UPF
     MD5 check sum: f98fea3e8887528921fefa5636a534ca
     Pseudo is Ultrasoft, Zval = 12.0
     Generated by new atomic code, or converted to UPF format
     Using radial grid of  851 points,  6 beta functions with:
                l(1) =   0
                l(2) =   0
                l(3) =   1
                l(4) =   1
                l(5) =   2
                l(6) =   2
     Q(r) pseudized with  8 coefficients,  rinner =    1.000   1.000   1.000
                                                       1.000   1.000

     atomic species   valence    mass     pseudopotential
        Nb            13.00    92.90638     Nb( 1.00)
        Ti            12.00    47.86700     Ti( 1.00)

     12 Sym. Ops. (no inversion) found ( 6 have fractional translation)

   Cartesian axes

     site n.     atom                  positions (alat units)
         1           Ti  tau(   1) = (   1.5225021  -2.6370512   4.9724614  )
         2           Ti  tau(   2) = (   0.0000015  -1.7580350   2.4862307  )
         3           Ti  tau(   3) = (   1.5225021  -2.6370512   9.9449228  )
         4           Ti  tau(   4) = (   0.0000015  -1.7580350   7.4586921  )
         5           Ti  tau(   5) = (   1.5225021  -2.6370512  14.9173841  )
         6           Nb  tau(   6) = (   0.0000015  -1.7580350  12.4311534  )

     number of k points=   120  Marzari-Vanderbilt smearing, width (Ry)=  0.0200

     Number of k-points >= 100: set verbosity='high' to print them.

     Initial potential from superposition of free atoms

     starting charge   67.99705, renormalised to   73.00000
     Starting wfcs are   63 randomized atomic wfcs

     Self-consistent Calculation

     iteration #  1     ecut=    40.00 Ry     beta= 0.60
     Davidson diagonalization with overlap
     ethr =  1.00E-02,  avg # of iterations =  4.6

     total energy              =    -234.04641110 Ry
     Harris-Foulkes estimate   =    -723.58164652 Ry
     estimated scf accuracy    <     588.12297129 Ry

     iteration #  2     ecut=    40.00 Ry     beta= 0.60
     Davidson diagonalization with overlap
     c_bands:  5 eigenvalues not converged
     c_bands:  5 eigenvalues not converged
     c_bands:  5 eigenvalues not converged
     c_bands:  5 eigenvalues not converged
     c_bands:  4 eigenvalues not converged
     c_bands:  5 eigenvalues not converged
     c_bands:  4 eigenvalues not converged
     c_bands:  5 eigenvalues not converged
     c_bands:  4 eigenvalues not converged
     c_bands:  4 eigenvalues not converged
     c_bands:  2 eigenvalues not converged
     c_bands:  4 eigenvalues not converged
     c_bands:  3 eigenvalues not converged
     c_bands:  2 eigenvalues not converged
     c_bands:  3 eigenvalues not converged
     c_bands:  5 eigenvalues not converged
     c_bands:  5 eigenvalues not converged
     c_bands:  5 eigenvalues not converged
     c_bands:  3 eigenvalues not converged
     c_bands:  2 eigenvalues not converged
     c_bands:  2 eigenvalues not converged
     c_bands:  2 eigenvalues not converged
     c_bands:  4 eigenvalues not converged
     c_bands:  2 eigenvalues not converged
     c_bands:  5 eigenvalues not converged
     c_bands:  5 eigenvalues not converged
     c_bands:  4 eigenvalues not converged
     c_bands:  4 eigenvalues not converged
     c_bands:  3 eigenvalues not converged
     c_bands:  3 eigenvalues not converged
     c_bands:  3 eigenvalues not converged
     c_bands:  1 eigenvalues not converged
     c_bands:  2 eigenvalues not converged
     c_bands:  3 eigenvalues not converged
     c_bands:  4 eigenvalues not converged
     c_bands:  5 eigenvalues not converged
     c_bands:  5 eigenvalues not converged
     c_bands:  5 eigenvalues not converged
     c_bands:  3 eigenvalues not converged
     c_bands:  4 eigenvalues not converged
     c_bands:  3 eigenvalues not converged
     c_bands:  1 eigenvalues not converged
     c_bands:  2 eigenvalues not converged
     c_bands:  1 eigenvalues not converged
     c_bands:  5 eigenvalues not converged
     c_bands:  5 eigenvalues not converged
     c_bands:  3 eigenvalues not converged
     c_bands:  4 eigenvalues not converged
     c_bands:  5 eigenvalues not converged
     c_bands:  2 eigenvalues not converged
     c_bands:  5 eigenvalues not converged
     c_bands:  1 eigenvalues not converged
     c_bands:  1 eigenvalues not converged
     c_bands:  1 eigenvalues not converged
     c_bands:  2 eigenvalues not converged
     c_bands:  1 eigenvalues not converged
     c_bands:  2 eigenvalues not converged
     c_bands:  2 eigenvalues not converged
     c_bands:  2 eigenvalues not converged
     c_bands:  2 eigenvalues not converged
     c_bands:  3 eigenvalues not converged
     c_bands:  2 eigenvalues not converged
     c_bands:  1 eigenvalues not converged
     c_bands:  4 eigenvalues not converged
     c_bands:  1 eigenvalues not converged
     c_bands:  1 eigenvalues not converged
     c_bands:  2 eigenvalues not converged
     c_bands:  3 eigenvalues not converged
     c_bands:  2 eigenvalues not converged
     ethr =  1.00E-02,  avg # of iterations = 22.4

[...]

     negative rho (up, down):  1.343E-06 0.000E+00

[...]

     negative rho (up, down):  1.481E-03 0.000E+00

[...]

     End of self-consistent calculation

     Number of k-points >= 100: set verbosity='high' to print the bands.

     the Fermi energy is    12.1298 ev

!    total energy              =    -701.12399163 Ry
     Harris-Foulkes estimate   =    -701.12399163 Ry
     estimated scf accuracy    <          3.9E-11 Ry

     The total energy is the sum of the following terms:

     one-electron contribution =    -259.09205730 Ry
     hartree contribution      =     148.39634087 Ry
     xc contribution           =     -90.43549193 Ry
     ewald contribution        =    -499.99135509 Ry
     smearing contrib. (-TS)   =      -0.00142818 Ry

     convergence has been achieved in  55 iterations

     Forces acting on atoms (cartesian axes, Ry/au):

     atom    1 type  2   force =     0.00000000    0.00000000    0.00000000
     atom    2 type  2   force =     0.00000000    0.00000000   -0.00018309
     atom    3 type  2   force =    -0.00000000    0.00000000   -0.00719825
     atom    4 type  2   force =    -0.00000000    0.00000000    0.00018309
     atom    5 type  2   force =    -0.00000000    0.00000000    0.00719825
     atom    6 type  1   force =     0.00000000    0.00000000    0.00000000

     Total force =     0.010183     Total SCF correction =     0.000019

     Computing stress (Cartesian axis) and pressure

          total   stress  (Ry/bohr**3)                   (kbar)     P= -132.30
  -0.00087487   0.00000000   0.00000000       -128.70      0.00      0.00
   0.00000000  -0.00087487   0.00000000          0.00   -128.70      0.00
   0.00000000   0.00000000  -0.00094825          0.00      0.00   -139.49

     BFGS Geometry Optimization

     number of scf cycles    =   1
     number of bfgs steps    =   0

     enthalpy new            =    -701.1239916264 Ry

     new trust radius        =       0.1348002112 bohr
     new conv_thr            =            1.0E-10 Ry

     new unit-cell volume =    755.03615 a.u.^3 (   111.88481 Ang^3 )
     density =      4.93096 g/cm^3

CELL_PARAMETERS (alat=  1.88972599)
  -1.489202364  -2.579374343   0.000000000
   2.978404729   0.000000000   0.000000000
   0.000000000   0.000000000  14.563747830

ATOMIC_POSITIONS (angstrom)
Ti       1.489202364  -2.579374343   4.854582610
Ti       0.000001490  -1.719583755   2.427196714
Ti       1.489202364  -2.579374343   9.705446372
Ti       0.000001490  -1.719583755   7.281968506
Ti       1.489202364  -2.579374343  14.567466679
Nb       0.000001490  -1.719583755  12.136456525

     NEW-OLD atomic charge density approx. for the potential
     extrapolated charge   68.19931, renormalised to   73.00000

[...]

     enthalpy old            =    -701.1239916264 Ry
     enthalpy new            =    -701.1617024589 Ry

     CASE: enthalpy_new < enthalpy_old

[...]

     Total force =     0.000066     Total SCF correction =     0.000010
     SCF correction compared to forces is large: reduce conv_thr to get better values

[...]

     Threshold (ethr) on eigenvalues was too large:
     Diagonalizing with lowered threshold

     Davidson diagonalization with overlap
     ethr =  5.88E-08,  avg # of iterations =  1.0

[...]

     small trust_radius: resetting bfgs history

[...]

     number of scf cycles    =  18
     number of bfgs steps    =  17

     enthalpy old            =    -701.1760642150 Ry
     enthalpy new            =    -701.1760642161 Ry

     CASE: enthalpy_new < enthalpy_old

     Message from routine bfgs:
     history already reset at previous step: stopping
     small trust_radius: resetting bfgs history

     new trust radius        =       0.0000087529 bohr
     new conv_thr            =            1.0E-12 Ry

     new unit-cell volume =    707.10150 a.u.^3 (   104.78163 Ang^3 )
     density =      5.26523 g/cm^3

[...]

ATOMIC_POSITIONS (angstrom)
Ti       1.459511141  -2.527947640   4.733239837
Ti       0.000001460  -1.685299269   2.396217867
Ti       1.459511141  -2.527947640   9.376969174
Ti       0.000001460  -1.685299269   7.070261807
Ti       1.459511141  -2.527947640  14.289230011
Nb       0.000001460  -1.685299269  11.833099592

     NEW-OLD atomic charge density approx. for the potential
     extrapolated charge   72.99974, renormalised to   73.00000

[...]

     Threshold (ethr) on eigenvalues was too large:
     Diagonalizing with lowered threshold

     Davidson diagonalization with overlap
     ethr =  2.97E-11,  avg # of iterations =  1.0

[...]

     Total force =     0.000006     Total SCF correction =     0.000001
     SCF correction compared to forces is large: reduce conv_thr to get better values

[...]

     bfgs converged in  19 scf cycles and  18 bfgs steps
     (criteria: energy <  1.0E-10 Ry, force <  1.0E-05Ry/Bohr, cell <  1.0E-03kbar)

     End of BFGS Geometry Optimization

     Final enthalpy =    -701.1760642164 Ry
Begin final coordinates
     new unit-cell volume =    707.10150 a.u.^3 (   104.78163 Ang^3 )
     density =      5.26523 g/cm^3

CELL_PARAMETERS (alat=  1.88972599)
  -1.459511141  -2.527947640   0.000000000
   2.919022283   0.000000000  -0.000000000
  -0.000000000  -0.000000000  14.199719511

ATOMIC_POSITIONS (angstrom)
Ti       1.459511141  -2.527947640   4.733239837
Ti       0.000001460  -1.685299269   2.396217867
Ti       1.459511141  -2.527947640   9.376969174
Ti       0.000001460  -1.685299269   7.070261807
Ti       1.459511141  -2.527947640  14.289230011
Nb       0.000001460  -1.685299269  11.833099592
End final coordinates

     A final scf calculation at the relaxed structure.
     The G-vectors are recalculated for the final unit cell
     Results may differ from those at the preceding step.

     bravais-lattice index     =            0
     lattice parameter (alat)  =       1.8897  a.u.
     unit-cell volume          =     707.1015 (a.u.)^3
     number of atoms/cell      =            6
     number of atomic types    =            2
     number of electrons       =        73.00
     number of Kohn-Sham states=           44
     kinetic-energy cutoff     =      40.0000  Ry
     charge density cutoff     =     400.0000  Ry
     convergence threshold     =      1.0E-12
     mixing beta               =       0.6000
     number of iterations used =            8  plain     mixing
     Exchange-correlation      = SLA PW PBE PBE ( 1  4  3  4 0 0)

     celldm(1)=   1.889726  celldm(2)=   0.000000  celldm(3)=   0.000000
     celldm(4)=   0.000000  celldm(5)=   0.000000  celldm(6)=   0.000000

     crystal axes: (cart. coord. in units of alat)
               a(1) = (  -1.459511  -2.527948   0.000000 )
               a(2) = (   2.919022   0.000000  -0.000000 )
               a(3) = (  -0.000000  -0.000000  14.199720 )

     reciprocal axes: (cart. coord. in units 2 pi/alat)
               b(1) = (  0.000000 -0.395578 -0.000000 )
               b(2) = (  0.342580 -0.197789  0.000000 )
               b(3) = (  0.000000  0.000000  0.070424 )

     PseudoPot. # 1 for Nb read from file:
     ./Nb.pbe-nsp-van.UPF
     MD5 check sum: 0a22fc7fb0ba19a08ca5db297a5d2854
     Pseudo is Ultrasoft + core correction, Zval = 13.0
     Generated by new atomic code, or converted to UPF format
     Using radial grid of  887 points,  6 beta functions with:
                l(1) =   0
                l(2) =   0
                l(3) =   1
                l(4) =   1
                l(5) =   2
                l(6) =   2
     Q(r) pseudized with  6 coefficients,  rinner =    1.000   1.000   1.000
                                                       1.000   1.000

     PseudoPot. # 2 for Ti read from file:
     ./Ti.pbe-sp-van_ak.UPF
     MD5 check sum: f98fea3e8887528921fefa5636a534ca
     Pseudo is Ultrasoft, Zval = 12.0
     Generated by new atomic code, or converted to UPF format
     Using radial grid of  851 points,  6 beta functions with:
                l(1) =   0
                l(2) =   0
                l(3) =   1
                l(4) =   1
                l(5) =   2
                l(6) =   2
     Q(r) pseudized with  8 coefficients,  rinner =    1.000   1.000   1.000
                                                       1.000   1.000

     atomic species   valence    mass     pseudopotential
        Nb            13.00    92.90638     Nb( 1.00)
        Ti            12.00    47.86700     Ti( 1.00)

     12 Sym. Ops. (no inversion) found ( 6 have fractional translation)

   Cartesian axes

     site n.     atom                  positions (alat units)
         1           Ti  tau(   1) = (   1.4595113  -2.5279478   4.7332402  )
         2           Ti  tau(   2) = (   0.0000015  -1.6852994   2.3962180  )
         3           Ti  tau(   3) = (   1.4595113  -2.5279478   9.3769699  )
         4           Ti  tau(   4) = (   0.0000015  -1.6852994   7.0702623  )
         5           Ti  tau(   5) = (   1.4595113  -2.5279478  14.2892311  )
         6           Nb  tau(   6) = (   0.0000015  -1.6852994  11.8331005  )

     number of k points=   120  Marzari-Vanderbilt smearing, width (Ry)=  0.0200

     Number of k-points >= 100: set verbosity='high' to print them.

     Initial potential from superposition of free atoms

     starting charge   67.99705, renormalised to   73.00000
     Starting wfcs are   63 randomized atomic wfcs

     Self-consistent Calculation

[...]

     iteration # 42     ecut=    40.00 Ry     beta= 0.60
     Davidson diagonalization with overlap
     c_bands:  2 eigenvalues not converged
     ethr =  1.96E-07,  avg # of iterations =  7.3

[...]

     total energy              =    -701.17004641 Ry
     Harris-Foulkes estimate   =    -701.17004641 Ry
     estimated scf accuracy    <          9.9E-12 Ry

     iteration # 54     ecut=    40.00 Ry     beta= 0.60
     Davidson diagonalization with overlap
     ethr =  1.00E-13,  avg # of iterations =  1.0

     End of self-consistent calculation

     Number of k-points >= 100: set verbosity='high' to print the bands.

     the Fermi energy is    14.2329 ev

!    total energy              =    -701.17004641 Ry
     Harris-Foulkes estimate   =    -701.17004641 Ry
     estimated scf accuracy    <          6.5E-13 Ry

     The total energy is the sum of the following terms:

     one-electron contribution =    -224.02929008 Ry
     hartree contribution      =     137.24168104 Ry
     xc contribution           =     -91.04640565 Ry
     ewald contribution        =    -523.33337149 Ry
     smearing contrib. (-TS)   =      -0.00266022 Ry

     convergence has been achieved in  54 iterations

     Forces acting on atoms (cartesian axes, Ry/au):

     atom    1 type  2   force =     0.00000000   -0.00000000    0.00000000
     atom    2 type  2   force =     0.00000000   -0.00000000   -0.00003689
     atom    3 type  2   force =     0.00000000    0.00000000    0.00024404
     atom    4 type  2   force =     0.00000000    0.00000000    0.00003689
     atom    5 type  2   force =    -0.00000000   -0.00000000   -0.00024404
     atom    6 type  1   force =     0.00000000   -0.00000000    0.00000000

     Total force =     0.000349     Total SCF correction =     0.000002

     Computing stress (Cartesian axis) and pressure

          total   stress  (Ry/bohr**3)                   (kbar)     P=   -6.99
  -0.00004635  -0.00000000  -0.00000000         -6.82     -0.00     -0.00
  -0.00000000  -0.00004635   0.00000000         -0.00     -6.82      0.00
  -0.00000000  -0.00000000  -0.00004980         -0.00     -0.00     -7.33

     General routines

     Parallel routines

       2h

   This run was terminated on:  11:34:48  24Jan2020

   JOB DONE.