     Program PWSCF v.6.3MaX starts on 24Jan2020 at  9:41:31

     R & G space division:  proc/nbgrp/npool/nimage =       4
     Waiting for input...
     Reading input from standard input

     Current dimensions of program PWSCF are:
     Max number of different atomic species (ntypx) = 10
     Max number of k-points (npk) =  40000
     Max angular momentum in pseudopotentials (lmaxx) =  3
     Message from routine iosys:
     minimal I/O required, wf_collect reset to FALSE

     Subspace diagonalization in iterative solution of the eigenvalue problem:
     a serial algorithm will be used

     bravais-lattice index     =            0
     lattice parameter (alat)  =       1.8897  a.u.
     unit-cell volume          =     586.6735 (a.u.)^3
     number of atoms/cell      =            4
     number of atomic types    =            2
     number of electrons       =        49.00
     number of Kohn-Sham states=           30
     kinetic-energy cutoff     =      50.0000  Ry
     charge density cutoff     =     500.0000  Ry
     convergence threshold     =      1.0E-10
     mixing beta               =       0.6000
     number of iterations used =            8  plain     mixing
     Exchange-correlation      = SLA PW PBE PBE ( 1  4  3  4 0 0)
     nstep                     =           50

     celldm(1)=   1.889726  celldm(2)=   0.000000  celldm(3)=   0.000000
     celldm(4)=   0.000000  celldm(5)=   0.000000  celldm(6)=   0.000000

     crystal axes: (cart. coord. in units of alat)
               a(1) = (  -5.274095   1.758031   1.758031 )
               a(2) = (   1.758031   1.758031  -5.274095 )
               a(3) = (   1.758031  -5.274095   1.758031 )

     reciprocal axes: (cart. coord. in units 2 pi/alat)
               b(1) = ( -0.284409 -0.142205 -0.142205 )
               b(2) = ( -0.142205 -0.142205 -0.284409 )
               b(3) = ( -0.142205 -0.284409 -0.142205 )

     PseudoPot. # 1 for Nb read from file:
     ./Nb.pbe-nsp-van.UPF
     MD5 check sum: 0a22fc7fb0ba19a08ca5db297a5d2854
     Pseudo is Ultrasoft + core correction, Zval = 13.0
     Generated by new atomic code, or converted to UPF format
     Using radial grid of  887 points,  6 beta functions with:
                l(1) =   0
                l(2) =   0
                l(3) =   1
                l(4) =   1
                l(5) =   2
                l(6) =   2
     Q(r) pseudized with  6 coefficients,  rinner =    1.000   1.000   1.000
                                                       1.000   1.000

     PseudoPot. # 2 for Ti read from file:
     ./Ti.pbe-sp-van_ak.UPF
     MD5 check sum: f98fea3e8887528921fefa5636a534ca
     Pseudo is Ultrasoft, Zval = 12.0
     Generated by new atomic code, or converted to UPF format
     Using radial grid of  851 points,  6 beta functions with:
                l(1) =   0
                l(2) =   0
                l(3) =   1
                l(4) =   1
                l(5) =   2
                l(6) =   2
     Q(r) pseudized with  8 coefficients,  rinner =    1.000   1.000   1.000
                                                       1.000   1.000

     atomic species   valence    mass     pseudopotential
        Nb            13.00    92.90638     Nb( 1.00)
        Ti            12.00    47.86700     Ti( 1.00)

     12 Sym. Ops., with inversion, found

   Cartesian axes

     site n.     atom                  positions (alat units)
         1           Ti  tau(   1) = (   0.0000000   0.0000000  -3.5160633  )
         2           Ti  tau(   2) = (   0.0000000  -3.5160633   0.0000000  )
         3           Ti  tau(   3) = (  -3.5160633   0.0000000   0.0000000  )
         4           Nb  tau(   4) = (  -1.7580316  -1.7580316  -1.7580316  )

     number of k points=   231  Marzari-Vanderbilt smearing, width (Ry)=  0.0200

     Number of k-points >= 100: set verbosity='high' to print them.

     Initial potential from superposition of free atoms

     starting charge   45.99713, renormalised to   49.00000
     Starting wfcs are   43 randomized atomic wfcs

     Self-consistent Calculation

     iteration #  1     ecut=    50.00 Ry     beta= 0.60
     Davidson diagonalization with overlap
     ethr =  1.00E-02,  avg # of iterations =  3.8

     total energy              =    -464.32891951 Ry
     Harris-Foulkes estimate   =    -469.31755597 Ry
     estimated scf accuracy    <       6.47642676 Ry

[...]

     iteration #  9     ecut=    50.00 Ry     beta= 0.60
     Davidson diagonalization with overlap
     c_bands:  1 eigenvalues not converged
     ethr =  2.71E-06,  avg # of iterations =  9.6

[...]

     End of self-consistent calculation

     Number of k-points >= 100: set verbosity='high' to print the bands.

     the Fermi energy is    11.0592 ev

!    total energy              =    -467.78536762 Ry
     Harris-Foulkes estimate   =    -467.78536762 Ry
     estimated scf accuracy    <          7.3E-12 Ry

     The total energy is the sum of the following terms:

     one-electron contribution =    -177.28503548 Ry
     hartree contribution      =      99.80822982 Ry
     xc contribution           =     -61.37517415 Ry
     ewald contribution        =    -328.93287699 Ry
     smearing contrib. (-TS)   =      -0.00051083 Ry

     convergence has been achieved in  18 iterations

     Forces acting on atoms (cartesian axes, Ry/au):

     atom    1 type  2   force =     0.00000000    0.00000000    0.00000000
     atom    2 type  2   force =    -0.00000000   -0.00000000   -0.00000000
     atom    3 type  2   force =     0.00000000    0.00000000   -0.00000000
     atom    4 type  1   force =     0.00000000    0.00000000    0.00000000

     Total force =     0.000000     Total SCF correction =     0.000000

     Computing stress (Cartesian axis) and pressure

          total   stress  (Ry/bohr**3)                   (kbar)     P= -184.35
  -0.00125319  -0.00000507  -0.00000507       -184.35     -0.75     -0.75
  -0.00000507  -0.00125319  -0.00000507         -0.75   -184.35     -0.75
  -0.00000507  -0.00000507  -0.00125319         -0.75     -0.75   -184.35

     BFGS Geometry Optimization

     number of scf cycles    =   1
     number of bfgs steps    =   0

     enthalpy new            =    -467.7853676246 Ry

     new trust radius        =       0.1517722740 bohr
     new conv_thr            =            1.0E-10 Ry

     new unit-cell volume =    533.24193 a.u.^3 (    79.01830 Ang^3 )
     density =      4.97011 g/cm^3

CELL_PARAMETERS (alat=  1.88972599)
  -5.109303843   1.703398268   1.703398268
   1.703398268   1.703398268  -5.109303843
   1.703398268  -5.109303843   1.703398268

ATOMIC_POSITIONS (angstrom)
Ti       0.000445480   0.000445480  -3.405905576
Ti       0.000445480  -3.405905576   0.000445480
Ti      -3.405905576   0.000445480   0.000445480
Nb      -1.702507308  -1.702507308  -1.702507308

     NEW-OLD atomic charge density approx. for the potential
     extrapolated charge   44.39103, renormalised to   49.00000

[...]

     enthalpy old            =    -467.7853676246 Ry
     enthalpy new            =    -467.8428172908 Ry

     CASE: enthalpy_new < enthalpy_old

[...]

     Threshold (ethr) on eigenvalues was too large:
     Diagonalizing with lowered threshold

     Davidson diagonalization with overlap
     ethr =  2.93E-09,  avg # of iterations =  1.6

[...]

     small trust_radius: resetting bfgs history

[...]

     number of scf cycles    =  10
     number of bfgs steps    =   9

     enthalpy old            =    -467.8742084443 Ry
     enthalpy new            =    -467.8742084449 Ry

     CASE: enthalpy_new < enthalpy_old

     Message from routine bfgs:
     history already reset at previous step: stopping
     small trust_radius: resetting bfgs history

     new trust radius        =       0.0000058486 bohr
     new conv_thr            =            1.0E-12 Ry

     new unit-cell volume =    467.32076 a.u.^3 (    69.24979 Ang^3 )
     density =      5.67120 g/cm^3

[...]

ATOMIC_POSITIONS (angstrom)
Ti       0.000050752   0.000050752  -3.259338926
Ti       0.000050752  -3.259338926   0.000050752
Ti      -3.259338926   0.000050752   0.000050752
Nb      -1.629618711  -1.629618711  -1.629618711

     NEW-OLD atomic charge density approx. for the potential
     extrapolated charge   49.00016, renormalised to   49.00000

[...]

     Threshold (ethr) on eigenvalues was too large:
     Diagonalizing with lowered threshold

     Davidson diagonalization with overlap
     ethr =  6.57E-12,  avg # of iterations =  2.2

[...]

     bfgs converged in  11 scf cycles and  10 bfgs steps
     (criteria: energy <  1.0E-10 Ry, force <  1.0E-05Ry/Bohr, cell <  1.0E-03kbar)

     End of BFGS Geometry Optimization

     Final enthalpy =    -467.8742084451 Ry
Begin final coordinates
     new unit-cell volume =    467.32076 a.u.^3 (    69.24979 Ang^3 )
     density =      5.67120 g/cm^3

CELL_PARAMETERS (alat=  1.88972599)
  -4.889059141   1.629720215   1.629720215
   1.629720215   1.629720215  -4.889059141
   1.629720215  -4.889059141   1.629720215

ATOMIC_POSITIONS (angstrom)
Ti       0.000050752   0.000050752  -3.259338926
Ti       0.000050752  -3.259338926   0.000050752
Ti      -3.259338926   0.000050752   0.000050752
Nb      -1.629618711  -1.629618711  -1.629618711
End final coordinates

     A final scf calculation at the relaxed structure.
     The G-vectors are recalculated for the final unit cell
     Results may differ from those at the preceding step.

     bravais-lattice index     =            0
     lattice parameter (alat)  =       1.8897  a.u.
     unit-cell volume          =     467.3208 (a.u.)^3
     number of atoms/cell      =            4
     number of atomic types    =            2
     number of electrons       =        49.00
     number of Kohn-Sham states=           30
     kinetic-energy cutoff     =      50.0000  Ry
     charge density cutoff     =     500.0000  Ry
     convergence threshold     =      1.0E-12
     mixing beta               =       0.6000
     number of iterations used =            8  plain     mixing
     Exchange-correlation      = SLA PW PBE PBE ( 1  4  3  4 0 0)

     celldm(1)=   1.889726  celldm(2)=   0.000000  celldm(3)=   0.000000
     celldm(4)=   0.000000  celldm(5)=   0.000000  celldm(6)=   0.000000

     crystal axes: (cart. coord. in units of alat)
               a(1) = (  -4.889059   1.629720   1.629720 )
               a(2) = (   1.629720   1.629720  -4.889059 )
               a(3) = (   1.629720  -4.889059   1.629720 )

     reciprocal axes: (cart. coord. in units 2 pi/alat)
               b(1) = ( -0.306815 -0.153413 -0.153413 )
               b(2) = ( -0.153413 -0.153413 -0.306815 )
               b(3) = ( -0.153413 -0.306815 -0.153413 )

     PseudoPot. # 1 for Nb read from file:
     ./Nb.pbe-nsp-van.UPF
     MD5 check sum: 0a22fc7fb0ba19a08ca5db297a5d2854
     Pseudo is Ultrasoft + core correction, Zval = 13.0
     Generated by new atomic code, or converted to UPF format
     Using radial grid of  887 points,  6 beta functions with:
                l(1) =   0
                l(2) =   0
                l(3) =   1
                l(4) =   1
                l(5) =   2
                l(6) =   2
     Q(r) pseudized with  6 coefficients,  rinner =    1.000   1.000   1.000
                                                       1.000   1.000

     PseudoPot. # 2 for Ti read from file:
     ./Ti.pbe-sp-van_ak.UPF
     MD5 check sum: f98fea3e8887528921fefa5636a534ca
     Pseudo is Ultrasoft, Zval = 12.0
     Generated by new atomic code, or converted to UPF format
     Using radial grid of  851 points,  6 beta functions with:
                l(1) =   0
                l(2) =   0
                l(3) =   1
                l(4) =   1
                l(5) =   2
                l(6) =   2
     Q(r) pseudized with  8 coefficients,  rinner =    1.000   1.000   1.000
                                                       1.000   1.000

     atomic species   valence    mass     pseudopotential
        Nb            13.00    92.90638     Nb( 1.00)
        Ti            12.00    47.86700     Ti( 1.00)

     12 Sym. Ops., with inversion, found

   Cartesian axes

     site n.     atom                  positions (alat units)
         1           Ti  tau(   1) = (   0.0000508   0.0000508  -3.2593392  )
         2           Ti  tau(   2) = (   0.0000508  -3.2593392   0.0000508  )
         3           Ti  tau(   3) = (  -3.2593392   0.0000508   0.0000508  )
         4           Nb  tau(   4) = (  -1.6296188  -1.6296188  -1.6296188  )

     number of k points=   231  Marzari-Vanderbilt smearing, width (Ry)=  0.0200

     Number of k-points >= 100: set verbosity='high' to print them.

     Initial potential from superposition of free atoms

     starting charge   45.99713, renormalised to   49.00000
     Starting wfcs are   43 randomized atomic wfcs

     Self-consistent Calculation

[...]

     iteration # 12     ecut=    50.00 Ry     beta= 0.60
     Davidson diagonalization with overlap
     c_bands:  1 eigenvalues not converged
     ethr =  4.26E-09,  avg # of iterations =  5.9

[...]

     total energy              =    -467.87377267 Ry
     Harris-Foulkes estimate   =    -467.87377267 Ry
     estimated scf accuracy    <          3.5E-12 Ry

     iteration # 23     ecut=    50.00 Ry     beta= 0.60
     Davidson diagonalization with overlap
     ethr =  1.00E-13,  avg # of iterations =  1.0

     End of self-consistent calculation

     Number of k-points >= 100: set verbosity='high' to print the bands.

     the Fermi energy is    14.5663 ev

!    total energy              =    -467.87377267 Ry
     Harris-Foulkes estimate   =    -467.87377267 Ry
     estimated scf accuracy    <          4.4E-15 Ry

     The total energy is the sum of the following terms:

     one-electron contribution =    -138.72406983 Ry
     hartree contribution      =      87.76329844 Ry
     xc contribution           =     -62.07174221 Ry
     ewald contribution        =    -354.84149413 Ry
     smearing contrib. (-TS)   =       0.00023506 Ry

     convergence has been achieved in  23 iterations

     Forces acting on atoms (cartesian axes, Ry/au):

     atom    1 type  2   force =     0.00000000    0.00000000    0.00000000
     atom    2 type  2   force =     0.00000000    0.00000000    0.00000000
     atom    3 type  2   force =     0.00000000    0.00000000    0.00000000
     atom    4 type  1   force =     0.00000000   -0.00000000   -0.00000000

     Total force =     0.000000     Total SCF correction =     0.000000

     Computing stress (Cartesian axis) and pressure

          total   stress  (Ry/bohr**3)                   (kbar)     P=   -0.23
  -0.00000156  -0.00000004  -0.00000004         -0.23     -0.01     -0.01
  -0.00000004  -0.00000156  -0.00000004         -0.01     -0.23     -0.01
  -0.00000004  -0.00000004  -0.00000156         -0.01     -0.01     -0.23

     General routines

     Parallel routines

      49h

   This run was terminated on:  11:30:46  24Jan2020

   JOB DONE.