     Program PWSCF v.6.0 (svn rev. 13079) starts on 28Apr2018 at 12:57:57

     Current dimensions of program PWSCF are:
     Max number of different atomic species (ntypx) = 10
     Max number of k-points (npk) =  40000
     Max angular momentum in pseudopotentials (lmaxx) =  3

     Subspace diagonalization in iterative solution of the eigenvalue problem:
     a serial algorithm will be used

     bravais-lattice index     =            0
     lattice parameter (alat)  =       1.8897  a.u.
     unit-cell volume          =     538.8952 (a.u.)^3
     number of atoms/cell      =            4
     number of atomic types    =            2
     number of electrons       =        50.00
     number of Kohn-Sham states=           30
     kinetic-energy cutoff     =      40.0000  Ry
     charge density cutoff     =     400.0000  Ry
     convergence threshold     =      1.0E-10
     mixing beta               =       0.6000
     number of iterations used =            8  plain     mixing
     Exchange-correlation      = SLA  PW   PBE  PBE ( 1  4  3  4 0 0)
     nstep                     =           50

     celldm(1)=   1.889726  celldm(2)=   0.000000  celldm(3)=   0.000000
     celldm(4)=   0.000000  celldm(5)=   0.000000  celldm(6)=   0.000000

     crystal axes: (cart. coord. in units of alat)
               a(1) = (  -1.522502  -2.637051   0.000000 )
               a(2) = (   3.045004   0.000000   0.000000 )
               a(3) = (   0.000000   0.000000   9.944922 )

     reciprocal axes: (cart. coord. in units 2 pi/alat)
               b(1) = (  0.000000 -0.379211  0.000000 )
               b(2) = (  0.328407 -0.189606  0.000000 )
               b(3) = ( -0.000000  0.000000  0.100554 )

     PseudoPot. # 1 for Nb read from file:
     ./Nb.pbe-nsp-van.UPF
     MD5 check sum: 0a22fc7fb0ba19a08ca5db297a5d2854
     Pseudo is Ultrasoft + core correction, Zval = 13.0
     Generated by new atomic code, or converted to UPF format
     Using radial grid of  887 points,  6 beta functions with:
                l(1) =   0
                l(2) =   0
                l(3) =   1
                l(4) =   1
                l(5) =   2
                l(6) =   2
     Q(r) pseudized with  6 coefficients,  rinner =    1.000   1.000   1.000
                                                       1.000   1.000

     PseudoPot. # 2 for Ti read from file:
     ./Ti.pbe-sp-van_ak.UPF
     MD5 check sum: f98fea3e8887528921fefa5636a534ca
     Pseudo is Ultrasoft, Zval = 12.0
     Generated by new atomic code, or converted to UPF format
     Using radial grid of  851 points,  6 beta functions with:
                l(1) =   0
                l(2) =   0
                l(3) =   1
                l(4) =   1
                l(5) =   2
                l(6) =   2
     Q(r) pseudized with  8 coefficients,  rinner =    1.000   1.000   1.000
                                                       1.000   1.000

     atomic species   valence    mass     pseudopotential
        Nb            13.00    92.90638     Nb( 1.00)
        Ti            12.00    47.86700     Ti( 1.00)

      6 Sym. Ops. (no inversion) found
          (note:  6 additional sym.ops. were found but ignored
           their fractional translations are incommensurate with FFT grid)

   Cartesian axes

     site n.     atom                  positions (alat units)
         1           Ti  tau(   1) = (   1.5225021  -2.6370512   4.9724614  )
         2           Ti  tau(   2) = (   0.0000015  -1.7580350   2.4862307  )
         3           Nb  tau(   3) = (   1.5225021  -2.6370512   9.9449228  )
         4           Nb  tau(   4) = (   0.0000015  -1.7580350   7.4586921  )

     number of k points=   220  Marzari-Vanderbilt smearing, width (Ry)=  0.0200

     Number of k-points >= 100: set verbosity='high' to print them.

     Initial potential from superposition of free atoms

     starting charge   47.99445, renormalised to   50.00000
     Starting wfc are   46 randomized atomic wfcs

     Self-consistent Calculation

     iteration #  1     ecut=    40.00 Ry     beta=0.60
     Davidson diagonalization with overlap
     ethr =  1.00E-02,  avg # of iterations =  4.1

     total energy              =    -389.53199995 Ry
     Harris-Foulkes estimate   =    -482.37762794 Ry
     estimated scf accuracy    <     112.72590636 Ry

[...]

     End of self-consistent calculation

     Number of k-points >= 100: set verbosity='high' to print the bands.

     the Fermi energy is    13.8286 ev

!    total energy              =    -469.09546600 Ry
     Harris-Foulkes estimate   =    -469.09546600 Ry
     estimated scf accuracy    <          9.2E-11 Ry

     The total energy is the sum of the following terms:

     one-electron contribution =    -137.35680248 Ry
     hartree contribution      =      85.59023127 Ry
     xc contribution           =     -65.50525984 Ry
     ewald contribution        =    -351.82030886 Ry
     smearing contrib. (-TS)   =      -0.00332609 Ry

     convergence has been achieved in  32 iterations

     Forces acting on atoms (Ry/au):

     atom    1 type  2   force =     0.00000000   -0.00000000   -0.00550580
     atom    2 type  2   force =     0.00000000    0.00000000    0.00550516
     atom    3 type  1   force =     0.00000000    0.00000000    0.01864373
     atom    4 type  1   force =     0.00000000   -0.00000000   -0.01864308

     Total force =     0.027491     Total SCF correction =     0.000043

     entering subroutine stress ...

          total   stress  (Ry/bohr**3)                   (kbar)     P= -120.19
  -0.00089405  -0.00000000   0.00000000       -131.52     -0.00      0.00
  -0.00000000  -0.00089405   0.00000000         -0.00   -131.52      0.00
   0.00000000   0.00000000  -0.00066294          0.00      0.00    -97.52

     BFGS Geometry Optimization

     number of scf cycles    =   1
     number of bfgs steps    =   0

     enthalpy new            =    -469.0954659966 Ry

     new trust radius        =       0.1037724851 bohr
     new conv_thr            =            1.0E-10 Ry

     new unit-cell volume =    506.53794 a.u.^3 (    75.06118 Ang^3 )

CELL_PARAMETERS (alat=  1.88972599)
  -1.488472313  -2.578109857   0.000000000
   2.976944626   0.000000000   0.000000000
   0.000000000   0.000000000   9.780100041

ATOMIC_POSITIONS (angstrom)
Ti       1.488472313  -2.578109857   4.887184762
Ti       0.000001489  -1.718740764   2.447889936
Nb       1.488472313  -2.578109857   9.789802365
Nb       0.000001489  -1.718740764   7.325373041

     NEW-OLD atomic charge density approx. for the potential

     Check: negative/imaginary core charge=   -0.000001    0.000000
     extrapolated charge   46.93415, renormalised to   50.00000

[...]

     iteration #  1     ecut=    40.00 Ry     beta=0.60
     Davidson diagonalization with overlap
     c_bands:  1 eigenvalues not converged
     c_bands:  1 eigenvalues not converged
     c_bands:  1 eigenvalues not converged
     c_bands:  2 eigenvalues not converged
     c_bands:  1 eigenvalues not converged
     c_bands:  1 eigenvalues not converged
     c_bands:  1 eigenvalues not converged
     c_bands:  3 eigenvalues not converged
     c_bands:  1 eigenvalues not converged
     ethr =  1.00E-06,  avg # of iterations = 13.4

[...]

     enthalpy old            =    -469.0954659966 Ry
     enthalpy new            =    -469.1162972568 Ry

     CASE: enthalpy_new < enthalpy_old

[...]

     NEW-OLD atomic charge density approx. for the potential
     extrapolated charge   47.30463, renormalised to   50.00000

[...]

     Threshold (ethr) on eigenvalues was too large:
     Diagonalizing with lowered threshold

     Davidson diagonalization with overlap
     ethr =  8.27E-10,  avg # of iterations =  3.4

[...]

     Total force =     0.000004     Total SCF correction =     0.000008
     SCF correction compared to forces is large: reduce conv_thr to get better values

[...]

     small trust_radius: resetting bfgs history

[...]

     number of scf cycles    =  14
     number of bfgs steps    =  13

     enthalpy old            =    -469.1260778895 Ry
     enthalpy new            =    -469.1260778897 Ry

     CASE: enthalpy_new < enthalpy_old

     Message from routine bfgs:
     history already reset at previous step: stopping
     small trust_radius: resetting bfgs history

     new trust radius        =       0.0000068927 bohr
     new conv_thr            =            1.0E-12 Ry

     new unit-cell volume =    483.46296 a.u.^3 (    71.64182 Ang^3 )

[...]

ATOMIC_POSITIONS (angstrom)
Ti       1.449748555  -2.511038345   4.838574561
Ti       0.000001450  -1.674026401   2.541348834
Nb       1.449748555  -2.511038345   9.900010918
Nb       0.000001450  -1.674026401   7.319815045

     NEW-OLD atomic charge density approx. for the potential
     extrapolated charge   50.00007, renormalised to   50.00000

[...]

     Threshold (ethr) on eigenvalues was too large:
     Diagonalizing with lowered threshold

     Davidson diagonalization with overlap
     ethr =  1.63E-12,  avg # of iterations =  2.4

[...]

     Total force =     0.000002     Total SCF correction =     0.000005
     SCF correction compared to forces is large: reduce conv_thr to get better values

[...]

     bfgs converged in  15 scf cycles and  14 bfgs steps
     (criteria: energy <  1.0E-10, force <  1.0E-05, cell <  1.0E-03)

     End of BFGS Geometry Optimization

     Final enthalpy =    -469.1260778898 Ry
Begin final coordinates
     new unit-cell volume =    483.46296 a.u.^3 (    71.64182 Ang^3 )

CELL_PARAMETERS (alat=  1.88972599)
  -1.449748555  -2.511038345  -0.000000000
   2.899497110  -0.000000000   0.000000000
   0.000000000   0.000000000   9.839899743

ATOMIC_POSITIONS (angstrom)
Ti       1.449748555  -2.511038345   4.838574561
Ti       0.000001450  -1.674026401   2.541348834
Nb       1.449748555  -2.511038345   9.900010918
Nb       0.000001450  -1.674026401   7.319815045
End final coordinates

     A final scf calculation at the relaxed structure.
     The G-vectors are recalculated for the final unit cell
     Results may differ from those at the preceding step.

   Info: using nr1, nr2, nr3 values from input

   Info: using nr1, nr2, nr3 values from input

     bravais-lattice index     =            0
     lattice parameter (alat)  =       1.8897  a.u.
     unit-cell volume          =     483.4630 (a.u.)^3
     number of atoms/cell      =            4
     number of atomic types    =            2
     number of electrons       =        50.00
     number of Kohn-Sham states=           30
     kinetic-energy cutoff     =      40.0000  Ry
     charge density cutoff     =     400.0000  Ry
     convergence threshold     =      1.0E-12
     mixing beta               =       0.6000
     number of iterations used =            8  plain     mixing
     Exchange-correlation      = SLA  PW   PBE  PBE ( 1  4  3  4 0 0)

     celldm(1)=   1.889726  celldm(2)=   0.000000  celldm(3)=   0.000000
     celldm(4)=   0.000000  celldm(5)=   0.000000  celldm(6)=   0.000000

     crystal axes: (cart. coord. in units of alat)
               a(1) = (  -1.449749  -2.511038  -0.000000 )
               a(2) = (   2.899497  -0.000000   0.000000 )
               a(3) = (   0.000000   0.000000   9.839900 )

     reciprocal axes: (cart. coord. in units 2 pi/alat)
               b(1) = ( -0.000000 -0.398242  0.000000 )
               b(2) = (  0.344887 -0.199121 -0.000000 )
               b(3) = ( -0.000000 -0.000000  0.101627 )

     PseudoPot. # 1 for Nb read from file:
     ./Nb.pbe-nsp-van.UPF
     MD5 check sum: 0a22fc7fb0ba19a08ca5db297a5d2854
     Pseudo is Ultrasoft + core correction, Zval = 13.0
     Generated by new atomic code, or converted to UPF format
     Using radial grid of  887 points,  6 beta functions with:
                l(1) =   0
                l(2) =   0
                l(3) =   1
                l(4) =   1
                l(5) =   2
                l(6) =   2
     Q(r) pseudized with  6 coefficients,  rinner =    1.000   1.000   1.000
                                                       1.000   1.000

     PseudoPot. # 2 for Ti read from file:
     ./Ti.pbe-sp-van_ak.UPF
     MD5 check sum: f98fea3e8887528921fefa5636a534ca
     Pseudo is Ultrasoft, Zval = 12.0
     Generated by new atomic code, or converted to UPF format
     Using radial grid of  851 points,  6 beta functions with:
                l(1) =   0
                l(2) =   0
                l(3) =   1
                l(4) =   1
                l(5) =   2
                l(6) =   2
     Q(r) pseudized with  8 coefficients,  rinner =    1.000   1.000   1.000
                                                       1.000   1.000

     atomic species   valence    mass     pseudopotential
        Nb            13.00    92.90638     Nb( 1.00)
        Ti            12.00    47.86700     Ti( 1.00)

      6 Sym. Ops. (no inversion) found
          (note:  6 additional sym.ops. were found but ignored
           their fractional translations are incommensurate with FFT grid)

   Cartesian axes

     site n.     atom                  positions (alat units)
         1           Ti  tau(   1) = (   1.4497487  -2.5110385   4.8385749  )
         2           Ti  tau(   2) = (   0.0000015  -1.6740265   2.5413490  )
         3           Nb  tau(   3) = (   1.4497487  -2.5110385   9.9000117  )
         4           Nb  tau(   4) = (   0.0000015  -1.6740265   7.3198156  )

     number of k points=   220  Marzari-Vanderbilt smearing, width (Ry)=  0.0200

     Number of k-points >= 100: set verbosity='high' to print them.

     Initial potential from superposition of free atoms

     starting charge   47.99445, renormalised to   50.00000
     Starting wfc are   46 randomized atomic wfcs

     Self-consistent Calculation

[...]

     iteration #  2     ecut=    40.00 Ry     beta=0.60
     Davidson diagonalization with overlap
     c_bands:  1 eigenvalues not converged
     c_bands:  1 eigenvalues not converged
     c_bands:  1 eigenvalues not converged
     c_bands:  1 eigenvalues not converged
     c_bands:  1 eigenvalues not converged
     c_bands:  1 eigenvalues not converged
     ethr =  1.00E-02,  avg # of iterations = 13.6

[...]

     total energy              =    -469.12373950 Ry
     Harris-Foulkes estimate   =    -469.12373950 Ry
     estimated scf accuracy    <          8.5E-12 Ry

     iteration # 38     ecut=    40.00 Ry     beta=0.60
     Davidson diagonalization with overlap
     ethr =  1.00E-13,  avg # of iterations =  1.0

     End of self-consistent calculation

     Number of k-points >= 100: set verbosity='high' to print the bands.

     the Fermi energy is    15.6770 ev

!    total energy              =    -469.12373950 Ry
     Harris-Foulkes estimate   =    -469.12373950 Ry
     estimated scf accuracy    <          7.9E-13 Ry

     The total energy is the sum of the following terms:

     one-electron contribution =    -117.77828497 Ry
     hartree contribution      =      79.66477794 Ry
     xc contribution           =     -65.88489508 Ry
     ewald contribution        =    -365.12327766 Ry
     smearing contrib. (-TS)   =      -0.00205973 Ry

     convergence has been achieved in  38 iterations

     Forces acting on atoms (Ry/au):

     atom    1 type  2   force =     0.00000000   -0.00000000    0.00010498
     atom    2 type  2   force =     0.00000000    0.00000000   -0.00010525
     atom    3 type  1   force =     0.00000000    0.00000000   -0.00002800
     atom    4 type  1   force =    -0.00000000   -0.00000000    0.00002827

     Total force =     0.000154     Total SCF correction =     0.000003

     entering subroutine stress ...

          total   stress  (Ry/bohr**3)                   (kbar)     P=   -2.82
  -0.00002214  -0.00000000   0.00000000         -3.26     -0.00      0.00
   0.00000000  -0.00002214   0.00000000          0.00     -3.26      0.00
   0.00000000   0.00000000  -0.00001320          0.00      0.00     -1.94

     General routines

     Parallel routines

   This run was terminated on:  14:39:30  28Apr2018

   JOB DONE.