     Program PWSCF v.6.0 (svn rev. 13079) starts on 11Mar2018 at 16:22:13

     Current dimensions of program PWSCF are:
     Max number of different atomic species (ntypx) = 10
     Max number of k-points (npk) =  40000
     Max angular momentum in pseudopotentials (lmaxx) =  3

     Subspace diagonalization in iterative solution of the eigenvalue problem:
     a serial algorithm will be used

     bravais-lattice index     =            0
     lattice parameter (alat)  =       1.8897  a.u.
     unit-cell volume          =     808.3427 (a.u.)^3
     number of atoms/cell      =            6
     number of atomic types    =            2
     number of electrons       =        76.00
     number of Kohn-Sham states=           46
     kinetic-energy cutoff     =      33.0700  Ry
     charge density cutoff     =     330.7000  Ry
     convergence threshold     =      1.0E-10
     mixing beta               =       0.6000
     number of iterations used =            8  plain     mixing
     Exchange-correlation      = SLA  PW   PBE  PBE ( 1  4  3  4 0 0)
     nstep                     =           50

     celldm(1)=   1.889726  celldm(2)=   0.000000  celldm(3)=   0.000000
     celldm(4)=   0.000000  celldm(5)=   0.000000  celldm(6)=   0.000000

     crystal axes: (cart. coord. in units of alat)
               a(1) = (   6.090008   5.274102   0.000000 )
               a(2) = (  -7.612510  -2.637051   0.000000 )
               a(3) = (   0.000000   0.000000   4.972461 )

     reciprocal axes: (cart. coord. in units 2 pi/alat)
               b(1) = ( -0.109469  0.316010  0.000000 )
               b(2) = ( -0.218938  0.252808  0.000000 )
               b(3) = (  0.000000 -0.000000  0.201108 )

     PseudoPot. # 1 for Nb read from file:
     ./Nb.pbe-nsp-van.UPF
     MD5 check sum: 2636d8d3a061c4aefa0a317108b12435
     Pseudo is Ultrasoft + core correction, Zval = 13.0
     Generated by new atomic code, or converted to UPF format
     Using radial grid of  887 points,  6 beta functions with:
                l(1) =   0
                l(2) =   0
                l(3) =   1
                l(4) =   1
                l(5) =   2
                l(6) =   2
     Q(r) pseudized with  6 coefficients,  rinner =    1.000   1.000   1.000
                                                       1.000   1.000

     PseudoPot. # 2 for Ti read from file:
     ./Ti.pbe-sp-van_ak.UPF
     MD5 check sum: 8e4df49b7f0d34bbd5052bf3f5ea0213
     Pseudo is Ultrasoft, Zval = 12.0
     Generated by new atomic code, or converted to UPF format
     Using radial grid of  851 points,  6 beta functions with:
                l(1) =   0
                l(2) =   0
                l(3) =   1
                l(4) =   1
                l(5) =   2
                l(6) =   2
     Q(r) pseudized with  8 coefficients,  rinner =    1.000   1.000   1.000
                                                       1.000   1.000

     atomic species   valence    mass     pseudopotential
        Nb            13.00    92.90600     Nb( 1.00)
        Ti            12.00    47.86700     Ti( 1.00)

      4 Sym. Ops. (no inversion) found

   Cartesian axes

     site n.     atom                  positions (alat units)
         1           Ti  tau(   1) = (  -1.5225021   2.6370512   4.9724614  )
         2           Ti  tau(   2) = (  -1.5225006   0.8790162   2.4862307  )
         3           Nb  tau(   3) = (   1.5225021   2.6370512   4.9724614  )
         4           Nb  tau(   4) = (  -6.0900069  -1.7580350   2.4862307  )
         5           Nb  tau(   5) = (  -3.0450042   0.0000000   4.9724614  )
         6           Nb  tau(   6) = (   3.0450058   3.5160674   2.4862307  )

     number of k points=   147  Marzari-Vanderbilt smearing, width (Ry)=  0.2000

     Number of k-points >= 100: set verbosity='high' to print them.

     Check: negative/imaginary core charge=   -0.000002    0.000000

     Initial potential from superposition of free atoms

     starting charge   73.98898, renormalised to   76.00000
     Starting wfc are   72 randomized atomic wfcs

     Self-consistent Calculation

     iteration #  1     ecut=    33.07 Ry     beta=0.60
     Davidson diagonalization with overlap
     ethr =  1.00E-02,  avg # of iterations =  3.5

     total energy              =    -601.31426639 Ry
     Harris-Foulkes estimate   =    -714.87705092 Ry
     estimated scf accuracy    <     139.13824917 Ry

[...]

     iteration # 16     ecut=    33.07 Ry     beta=0.60
     Davidson diagonalization with overlap
     c_bands:  1 eigenvalues not converged
     ethr =  1.57E-04,  avg # of iterations =  6.8

[...]

     End of self-consistent calculation

     Number of k-points >= 100: set verbosity='high' to print the bands.

     the Fermi energy is    14.8743 ev

!    total energy              =    -705.07780027 Ry
     Harris-Foulkes estimate   =    -705.07780027 Ry
     estimated scf accuracy    <          2.6E-11 Ry

     The total energy is the sum of the following terms:

     one-electron contribution =    -178.36048513 Ry
     hartree contribution      =     118.42898777 Ry
     xc contribution           =    -102.26204736 Ry
     ewald contribution        =    -542.38578772 Ry
     smearing contrib. (-TS)   =      -0.49846783 Ry

     convergence has been achieved in  36 iterations

     Forces acting on atoms (Ry/au):

     atom    1 type  2   force =     0.00007136    0.00004120    0.00000000
     atom    2 type  2   force =    -0.00007127   -0.00004115    0.00000000
     atom    3 type  1   force =     0.00173314    0.00100063    0.00000000
     atom    4 type  1   force =     0.00425657    0.00245753    0.00000000
     atom    5 type  1   force =    -0.00425662   -0.00245756    0.00000000
     atom    6 type  1   force =    -0.00173318   -0.00100065    0.00000000

     Total force =     0.007506     Total SCF correction =     0.000017

     entering subroutine stress ...

          total   stress  (Ry/bohr**3)                   (kbar)     P=  -45.54
  -0.00031471   0.00002107   0.00000000        -46.30      3.10      0.00
   0.00002107  -0.00033904   0.00000000          3.10    -49.87      0.00
   0.00000000   0.00000000  -0.00027498          0.00      0.00    -40.45

     BFGS Geometry Optimization

     number of scf cycles    =   1
     number of bfgs steps    =   0

     enthalpy new            =    -705.0778002652 Ry

     new trust radius        =       0.0482901316 bohr
     new conv_thr            =            1.0E-10 Ry

     new unit-cell volume =    789.71847 a.u.^3 (   117.02420 Ang^3 )

CELL_PARAMETERS (alat=  1.88972599)
   6.044870963   5.232606291   0.000000000
  -7.554005140  -2.618709037   0.000000000
   0.000000000   0.000000000   4.938277810

ATOMIC_POSITIONS (angstrom)
Ti      -1.509096703   2.613918890   4.938277810
Ti      -1.510096125   0.870741961   2.469138905
Nb       1.512822465   2.616026687   4.938277810
Nb      -6.040781954  -1.745050905   2.469138905
Nb      -3.023281906  -0.002894575   4.938277810
Nb       3.021989783   3.487343163   2.469138905

     NEW-OLD atomic charge density approx. for the potential

     Check: negative/imaginary core charge=   -0.000002    0.000000
     extrapolated charge   74.25509, renormalised to   76.00000

[...]

     enthalpy old            =    -705.0778002652 Ry
     enthalpy new            =    -705.0820903510 Ry

     CASE: enthalpy_new < enthalpy_old

[...]

     Threshold (ethr) on eigenvalues was too large:
     Diagonalizing with lowered threshold

     Davidson diagonalization with overlap
     ethr =  1.32E-08,  avg # of iterations =  7.6

[...]

     Total force =     0.000083     Total SCF correction =     0.000018
     SCF correction compared to forces is large: reduce conv_thr to get better values

[...]

     Davidson diagonalization with overlap
     c_bands:  1 eigenvalues not converged
     ethr =  1.96E-08,  avg # of iterations =  6.3

[...]

     WARNING: bfgs curvature condition failed, Theta= 0.657
     new trust radius        =       0.0041408303 bohr
     new conv_thr            =            1.6E-11 Ry

[...]

     CASE: enthalpy_new > enthalpy_old

[...]

     WARNING: info= 19 for Hessian
     uphill step: resetting bfgs history

[...]

     Davidson diagonalization with overlap
     c_bands:  1 eigenvalues not converged
     ethr =  2.07E-08,  avg # of iterations =  5.6

[...]

     WARNING: bfgs curvature condition failed, Theta= 0.886
     new trust radius        =       0.0052444217 bohr
     new conv_thr            =            1.0E-11 Ry

[...]

     small trust_radius: resetting bfgs history

[...]

     number of scf cycles    =  33
     number of bfgs steps    =  31

     enthalpy old            =    -705.0831965934 Ry
     enthalpy new            =    -705.0831966047 Ry

     CASE: enthalpy_new < enthalpy_old

     Message from routine bfgs:
     history already reset at previous step: stopping
     small trust_radius: resetting bfgs history

     new trust radius        =       0.0000470238 bohr
     new conv_thr            =            4.1E-12 Ry

     new unit-cell volume =    776.10769 a.u.^3 (   115.00729 Ang^3 )

[...]

ATOMIC_POSITIONS (angstrom)
Ti      -1.475641610   2.580700405   4.932953812
Ti      -1.508584702   0.845347713   2.466476906
Nb       1.533110034   2.601472825   4.932953812
Nb      -6.032557611  -1.766569447   2.466476906
Nb      -3.000314925  -0.015901478   4.932953812
Nb       3.017694986   3.458596692   2.466476906

     NEW-OLD atomic charge density approx. for the potential

     Check: negative/imaginary core charge=   -0.000002    0.000000
     extrapolated charge   76.00003, renormalised to   76.00000

[...]

     Threshold (ethr) on eigenvalues was too large:
     Diagonalizing with lowered threshold

     Davidson diagonalization with overlap
     ethr =  2.09E-11,  avg # of iterations =  5.5

[...]

     Total force =     0.000063     Total SCF correction =     0.000002

[...]

     bfgs converged in  34 scf cycles and  32 bfgs steps
     (criteria: energy <  1.0E-10, force <  1.0E-05, cell <  1.0E-03)

     End of BFGS Geometry Optimization

     Final enthalpy =    -705.0831966121 Ry
Begin final coordinates
     new unit-cell volume =    776.10769 a.u.^3 (   115.00729 Ang^3 )

CELL_PARAMETERS (alat=  1.88972599)
   6.048644816   5.208518230   0.000000000
  -7.535031193  -2.634021319   0.000000000
   0.000000000   0.000000000   4.932953812

ATOMIC_POSITIONS (angstrom)
Ti      -1.475641610   2.580700405   4.932953812
Ti      -1.508584702   0.845347713   2.466476906
Nb       1.533110034   2.601472825   4.932953812
Nb      -6.032557611  -1.766569447   2.466476906
Nb      -3.000314925  -0.015901478   4.932953812
Nb       3.017694986   3.458596692   2.466476906
End final coordinates

     A final scf calculation at the relaxed structure.
     The G-vectors are recalculated for the final unit cell
     Results may differ from those at the preceding step.

   Info: using nr1, nr2, nr3 values from input

   Info: using nr1, nr2, nr3 values from input

     bravais-lattice index     =            0
     lattice parameter (alat)  =       1.8897  a.u.
     unit-cell volume          =     776.1077 (a.u.)^3
     number of atoms/cell      =            6
     number of atomic types    =            2
     number of electrons       =        76.00
     number of Kohn-Sham states=           46
     kinetic-energy cutoff     =      33.0700  Ry
     charge density cutoff     =     330.7000  Ry
     convergence threshold     =      4.1E-12
     mixing beta               =       0.6000
     number of iterations used =            8  plain     mixing
     Exchange-correlation      = SLA  PW   PBE  PBE ( 1  4  3  4 0 0)

     celldm(1)=   1.889726  celldm(2)=   0.000000  celldm(3)=   0.000000
     celldm(4)=   0.000000  celldm(5)=   0.000000  celldm(6)=   0.000000

     crystal axes: (cart. coord. in units of alat)
               a(1) = (   6.048645   5.208518   0.000000 )
               a(2) = (  -7.535031  -2.634021   0.000000 )
               a(3) = (   0.000000   0.000000   4.932954 )

     reciprocal axes: (cart. coord. in units 2 pi/alat)
               b(1) = ( -0.112980  0.323196  0.000000 )
               b(2) = ( -0.223406  0.259442  0.000000 )
               b(3) = (  0.000000 -0.000000  0.202718 )

     PseudoPot. # 1 for Nb read from file:
     ./Nb.pbe-nsp-van.UPF
     MD5 check sum: 2636d8d3a061c4aefa0a317108b12435
     Pseudo is Ultrasoft + core correction, Zval = 13.0
     Generated by new atomic code, or converted to UPF format
     Using radial grid of  887 points,  6 beta functions with:
                l(1) =   0
                l(2) =   0
                l(3) =   1
                l(4) =   1
                l(5) =   2
                l(6) =   2
     Q(r) pseudized with  6 coefficients,  rinner =    1.000   1.000   1.000
                                                       1.000   1.000

     PseudoPot. # 2 for Ti read from file:
     ./Ti.pbe-sp-van_ak.UPF
     MD5 check sum: 8e4df49b7f0d34bbd5052bf3f5ea0213
     Pseudo is Ultrasoft, Zval = 12.0
     Generated by new atomic code, or converted to UPF format
     Using radial grid of  851 points,  6 beta functions with:
                l(1) =   0
                l(2) =   0
                l(3) =   1
                l(4) =   1
                l(5) =   2
                l(6) =   2
     Q(r) pseudized with  8 coefficients,  rinner =    1.000   1.000   1.000
                                                       1.000   1.000

     atomic species   valence    mass     pseudopotential
        Nb            13.00    92.90600     Nb( 1.00)
        Ti            12.00    47.86700     Ti( 1.00)

      4 Sym. Ops. (no inversion) found

   Cartesian axes

     site n.     atom                  positions (alat units)
         1           Ti  tau(   1) = (  -1.4756417   2.5807006   4.9329542  )
         2           Ti  tau(   2) = (  -1.5085848   0.8453478   2.4664771  )
         3           Nb  tau(   3) = (   1.5331102   2.6014730   4.9329542  )
         4           Nb  tau(   4) = (  -6.0325581  -1.7665696   2.4664771  )
         5           Nb  tau(   5) = (  -3.0003152  -0.0159015   4.9329542  )
         6           Nb  tau(   6) = (   3.0176952   3.4585970   2.4664771  )

     number of k points=   147  Marzari-Vanderbilt smearing, width (Ry)=  0.2000

     Number of k-points >= 100: set verbosity='high' to print them.

     Check: negative/imaginary core charge=   -0.000002    0.000000

     Initial potential from superposition of free atoms

     starting charge   73.98898, renormalised to   76.00000
     Starting wfc are   72 randomized atomic wfcs

     Self-consistent Calculation

[...]

     iteration # 38     ecut=    33.07 Ry     beta=0.60
     Davidson diagonalization with overlap
     c_bands:  1 eigenvalues not converged
     ethr =  1.00E-13,  avg # of iterations =  2.3

     total energy              =    -705.08052894 Ry
     Harris-Foulkes estimate   =    -705.08052894 Ry
     estimated scf accuracy    <          2.3E-11 Ry

     iteration # 39     ecut=    33.07 Ry     beta=0.60
     Davidson diagonalization with overlap
     ethr =  1.00E-13,  avg # of iterations =  1.8

     End of self-consistent calculation

     Number of k-points >= 100: set verbosity='high' to print the bands.

     the Fermi energy is    15.5724 ev

!    total energy              =    -705.08052894 Ry
     Harris-Foulkes estimate   =    -705.08052894 Ry
     estimated scf accuracy    <          2.5E-12 Ry

     The total energy is the sum of the following terms:

     one-electron contribution =    -167.70851706 Ry
     hartree contribution      =     115.29862537 Ry
     xc contribution           =    -102.47765524 Ry
     ewald contribution        =    -549.72798801 Ry
     smearing contrib. (-TS)   =      -0.46499400 Ry

     convergence has been achieved in  39 iterations

     Forces acting on atoms (Ry/au):

     atom    1 type  2   force =    -0.00001584   -0.00000915    0.00000000
     atom    2 type  2   force =     0.00001572    0.00000908    0.00000000
     atom    3 type  1   force =     0.00001189    0.00000686    0.00000000
     atom    4 type  1   force =    -0.00001208   -0.00000698    0.00000000
     atom    5 type  1   force =     0.00001258    0.00000726    0.00000000
     atom    6 type  1   force =    -0.00001226   -0.00000708    0.00000000

     Total force =     0.000038     Total SCF correction =     0.000007
     SCF correction compared to forces is large: reduce conv_thr to get better values

     entering subroutine stress ...

          total   stress  (Ry/bohr**3)                   (kbar)     P=   -1.26
  -0.00000841   0.00000205   0.00000000         -1.24      0.30      0.00
   0.00000205  -0.00001078   0.00000000          0.30     -1.59      0.00
   0.00000000   0.00000000  -0.00000653          0.00      0.00     -0.96

     General routines

     Parallel routines

   This run was terminated on:   0:11:32  12Mar2018

   JOB DONE.