     Program PWSCF v.6.0 (svn rev. 13079) starts on 10Mar2018 at 11:54:31

     Current dimensions of program PWSCF are:
     Max number of different atomic species (ntypx) = 10
     Max number of k-points (npk) =  40000
     Max angular momentum in pseudopotentials (lmaxx) =  3

     Subspace diagonalization in iterative solution of the eigenvalue problem:
     a serial algorithm will be used

     bravais-lattice index     =            0
     lattice parameter (alat)  =       1.8897  a.u.
     unit-cell volume          =     808.3427 (a.u.)^3
     number of atoms/cell      =            6
     number of atomic types    =            2
     number of electrons       =        75.00
     number of Kohn-Sham states=           46
     kinetic-energy cutoff     =      33.0700  Ry
     charge density cutoff     =     330.7000  Ry
     convergence threshold     =      1.0E-10
     mixing beta               =       0.6000
     number of iterations used =            8  plain     mixing
     Exchange-correlation      = SLA  PW   PBE  PBE ( 1  4  3  4 0 0)
     nstep                     =           50

     celldm(1)=   1.889726  celldm(2)=   0.000000  celldm(3)=   0.000000
     celldm(4)=   0.000000  celldm(5)=   0.000000  celldm(6)=   0.000000

     crystal axes: (cart. coord. in units of alat)
               a(1) = (   6.090008   5.274102   0.000000 )
               a(2) = (  -7.612510  -2.637051   0.000000 )
               a(3) = (   0.000000   0.000000   4.972461 )

     reciprocal axes: (cart. coord. in units 2 pi/alat)
               b(1) = ( -0.109469  0.316010  0.000000 )
               b(2) = ( -0.218938  0.252808  0.000000 )
               b(3) = (  0.000000 -0.000000  0.201108 )

     PseudoPot. # 1 for Nb read from file:
     ./Nb.pbe-nsp-van.UPF
     MD5 check sum: 2636d8d3a061c4aefa0a317108b12435
     Pseudo is Ultrasoft + core correction, Zval = 13.0
     Generated by new atomic code, or converted to UPF format
     Using radial grid of  887 points,  6 beta functions with:
                l(1) =   0
                l(2) =   0
                l(3) =   1
                l(4) =   1
                l(5) =   2
                l(6) =   2
     Q(r) pseudized with  6 coefficients,  rinner =    1.000   1.000   1.000
                                                       1.000   1.000

     PseudoPot. # 2 for Ti read from file:
     ./Ti.pbe-sp-van_ak.UPF
     MD5 check sum: 8e4df49b7f0d34bbd5052bf3f5ea0213
     Pseudo is Ultrasoft, Zval = 12.0
     Generated by new atomic code, or converted to UPF format
     Using radial grid of  851 points,  6 beta functions with:
                l(1) =   0
                l(2) =   0
                l(3) =   1
                l(4) =   1
                l(5) =   2
                l(6) =   2
     Q(r) pseudized with  8 coefficients,  rinner =    1.000   1.000   1.000
                                                       1.000   1.000

     atomic species   valence    mass     pseudopotential
        Nb            13.00    92.90600     Nb( 1.00)
        Ti            12.00    47.86700     Ti( 1.00)

      4 Sym. Ops. (no inversion) found

   Cartesian axes

     site n.     atom                  positions (alat units)
         1           Nb  tau(   1) = (  -1.5225021   2.6370512   4.9724614  )
         2           Ti  tau(   2) = (  -1.5225006   0.8790162   2.4862307  )
         3           Ti  tau(   3) = (   1.5225021   2.6370512   4.9724614  )
         4           Nb  tau(   4) = (  -6.0900069  -1.7580350   2.4862307  )
         5           Ti  tau(   5) = (  -3.0450042   0.0000000   4.9724614  )
         6           Nb  tau(   6) = (   3.0450058   3.5160674   2.4862307  )

     number of k points=   147  Marzari-Vanderbilt smearing, width (Ry)=  0.2000

     Number of k-points >= 100: set verbosity='high' to print them.

     Check: negative/imaginary core charge=   -0.000002    0.000000

     Initial potential from superposition of free atoms

     starting charge   71.99167, renormalised to   75.00000
     Starting wfc are   69 randomized atomic wfcs

     Self-consistent Calculation

     iteration #  1     ecut=    33.07 Ry     beta=0.60
     Davidson diagonalization with overlap
     ethr =  1.00E-02,  avg # of iterations =  3.0

     total energy              =    -677.64267831 Ry
     Harris-Foulkes estimate   =    -707.02401589 Ry
     estimated scf accuracy    <      36.45148666 Ry

[...]

     iteration # 21     ecut=    33.07 Ry     beta=0.60
     Davidson diagonalization with overlap
     c_bands:  1 eigenvalues not converged
     ethr =  2.21E-07,  avg # of iterations =  6.9

[...]

     End of self-consistent calculation

     Number of k-points >= 100: set verbosity='high' to print the bands.

     the Fermi energy is    14.0351 ev

!    total energy              =    -703.84209055 Ry
     Harris-Foulkes estimate   =    -703.84209055 Ry
     estimated scf accuracy    <          3.6E-11 Ry

     The total energy is the sum of the following terms:

     one-electron contribution =    -204.78061438 Ry
     hartree contribution      =     128.39925786 Ry
     xc contribution           =     -98.35495778 Ry
     ewald contribution        =    -528.53864097 Ry
     smearing contrib. (-TS)   =      -0.56713529 Ry

     convergence has been achieved in  31 iterations

     Forces acting on atoms (Ry/au):

     atom    1 type  1   force =     0.00260547    0.00150427    0.00000000
     atom    2 type  2   force =     0.00151401    0.00087411    0.00000000
     atom    3 type  2   force =    -0.00229824   -0.00132689    0.00000000
     atom    4 type  1   force =     0.00090454    0.00052224    0.00000000
     atom    5 type  2   force =     0.00034809    0.00020097    0.00000000
     atom    6 type  1   force =    -0.00307387   -0.00177470    0.00000000

     Total force =     0.005745     Total SCF correction =     0.000017

     entering subroutine stress ...

          total   stress  (Ry/bohr**3)                   (kbar)     P=  -51.42
  -0.00035870   0.00001622   0.00000000        -52.77      2.39      0.00
   0.00001622  -0.00037742   0.00000000          2.39    -55.52      0.00
   0.00000000   0.00000000  -0.00031254          0.00      0.00    -45.98

     BFGS Geometry Optimization

     number of scf cycles    =   1
     number of bfgs steps    =   0

     enthalpy new            =    -703.8420905529 Ry

     new trust radius        =       0.0537027779 bohr
     new conv_thr            =            1.0E-10 Ry

     new unit-cell volume =    787.33483 a.u.^3 (   116.67098 Ang^3 )

CELL_PARAMETERS (alat=  1.88972599)
   6.037534056   5.226806619   0.000000000
  -7.545314024  -2.615254926   0.000000000
   0.000000000   0.000000000   4.933609200

ATOMIC_POSITIONS (angstrom)
Nb      -1.506413252   2.612340767   4.933609200
Ti      -1.507696963   0.870563412   2.466804600
Ti       1.508712474   2.612090076   4.933609200
Nb      -6.035632689  -1.743641681   2.466804600
Ti      -3.017515405  -0.001128991   4.933609200
Nb       3.017512463   3.483194476   2.466804600

     NEW-OLD atomic charge density approx. for the potential

     Check: negative/imaginary core charge=   -0.000002    0.000000
     extrapolated charge   73.07910, renormalised to   75.00000

[...]

     enthalpy old            =    -703.8420905529 Ry
     enthalpy new            =    -703.8477409573 Ry

     CASE: enthalpy_new < enthalpy_old

[...]

     Threshold (ethr) on eigenvalues was too large:
     Diagonalizing with lowered threshold

     Davidson diagonalization with overlap
     c_bands:  1 eigenvalues not converged
     ethr =  2.32E-08,  avg # of iterations =  8.2

[...]

     Davidson diagonalization with overlap
     c_bands:  1 eigenvalues not converged
     ethr =  6.21E-08,  avg # of iterations =  2.4

[...]

     Total force =     0.000151     Total SCF correction =     0.000017
     SCF correction compared to forces is large: reduce conv_thr to get better values

[...]

     Davidson diagonalization with overlap
     ethr =  3.47E-08,  avg # of iterations =  3.1

[...]

     Total force =     0.000021     Total SCF correction =     0.000004
     SCF correction compared to forces is large: reduce conv_thr to get better values

[...]

     small trust_radius: resetting bfgs history

[...]

     number of scf cycles    =  20
     number of bfgs steps    =  19

     enthalpy old            =    -703.8497916208 Ry
     enthalpy new            =    -703.8497916226 Ry

     CASE: enthalpy_new < enthalpy_old

     Message from routine bfgs:
     history already reset at previous step: stopping
     small trust_radius: resetting bfgs history

     new trust radius        =       0.0000199368 bohr
     new conv_thr            =            1.2E-12 Ry

     new unit-cell volume =    768.34049 a.u.^3 (   113.85631 Ang^3 )

[...]

ATOMIC_POSITIONS (angstrom)
Nb      -1.440696656   2.574081571   4.912971009
Ti      -1.519348304   0.825736202   2.456485505
Ti       1.555806183   2.601179296   4.912971009
Nb      -6.057645703  -1.794451205   2.456485505
Ti      -2.977190478  -0.015947729   4.912971009
Nb       3.009226118   3.440310047   2.456485505

     NEW-OLD atomic charge density approx. for the potential

     Check: negative/imaginary core charge=   -0.000001    0.000000
     extrapolated charge   74.99971, renormalised to   75.00000

[...]

     Threshold (ethr) on eigenvalues was too large:
     Diagonalizing with lowered threshold

     Davidson diagonalization with overlap
     ethr =  7.82E-12,  avg # of iterations =  5.0

[...]

     bfgs converged in  21 scf cycles and  20 bfgs steps
     (criteria: energy <  1.0E-10, force <  1.0E-05, cell <  1.0E-03)

     End of BFGS Geometry Optimization

     Final enthalpy =    -703.8497916237 Ry
Begin final coordinates
     new unit-cell volume =    768.34049 a.u.^3 (   113.85631 Ang^3 )

CELL_PARAMETERS (alat=  1.88972599)
   6.066934866   5.205680839   0.000000000
  -7.541718965  -2.651279662   0.000000000
   0.000000000   0.000000000   4.912971009

ATOMIC_POSITIONS (angstrom)
Nb      -1.440696656   2.574081571   4.912971009
Ti      -1.519348304   0.825736202   2.456485505
Ti       1.555806183   2.601179296   4.912971009
Nb      -6.057645703  -1.794451205   2.456485505
Ti      -2.977190478  -0.015947729   4.912971009
Nb       3.009226118   3.440310047   2.456485505
End final coordinates

     A final scf calculation at the relaxed structure.
     The G-vectors are recalculated for the final unit cell
     Results may differ from those at the preceding step.

   Info: using nr1, nr2, nr3 values from input

   Info: using nr1, nr2, nr3 values from input

     bravais-lattice index     =            0
     lattice parameter (alat)  =       1.8897  a.u.
     unit-cell volume          =     768.3405 (a.u.)^3
     number of atoms/cell      =            6
     number of atomic types    =            2
     number of electrons       =        75.00
     number of Kohn-Sham states=           46
     kinetic-energy cutoff     =      33.0700  Ry
     charge density cutoff     =     330.7000  Ry
     convergence threshold     =      1.2E-12
     mixing beta               =       0.6000
     number of iterations used =            8  plain     mixing
     Exchange-correlation      = SLA  PW   PBE  PBE ( 1  4  3  4 0 0)

     celldm(1)=   1.889726  celldm(2)=   0.000000  celldm(3)=   0.000000
     celldm(4)=   0.000000  celldm(5)=   0.000000  celldm(6)=   0.000000

     crystal axes: (cart. coord. in units of alat)
               a(1) = (   6.066935   5.205681   0.000000 )
               a(2) = (  -7.541719  -2.651280   0.000000 )
               a(3) = (   0.000000   0.000000   4.912971 )

     reciprocal axes: (cart. coord. in units 2 pi/alat)
               b(1) = ( -0.114404  0.325430  0.000000 )
               b(2) = ( -0.224628  0.261792  0.000000 )
               b(3) = (  0.000000 -0.000000  0.203543 )

     PseudoPot. # 1 for Nb read from file:
     ./Nb.pbe-nsp-van.UPF
     MD5 check sum: 2636d8d3a061c4aefa0a317108b12435
     Pseudo is Ultrasoft + core correction, Zval = 13.0
     Generated by new atomic code, or converted to UPF format
     Using radial grid of  887 points,  6 beta functions with:
                l(1) =   0
                l(2) =   0
                l(3) =   1
                l(4) =   1
                l(5) =   2
                l(6) =   2
     Q(r) pseudized with  6 coefficients,  rinner =    1.000   1.000   1.000
                                                       1.000   1.000

     PseudoPot. # 2 for Ti read from file:
     ./Ti.pbe-sp-van_ak.UPF
     MD5 check sum: 8e4df49b7f0d34bbd5052bf3f5ea0213
     Pseudo is Ultrasoft, Zval = 12.0
     Generated by new atomic code, or converted to UPF format
     Using radial grid of  851 points,  6 beta functions with:
                l(1) =   0
                l(2) =   0
                l(3) =   1
                l(4) =   1
                l(5) =   2
                l(6) =   2
     Q(r) pseudized with  8 coefficients,  rinner =    1.000   1.000   1.000
                                                       1.000   1.000

     atomic species   valence    mass     pseudopotential
        Nb            13.00    92.90600     Nb( 1.00)
        Ti            12.00    47.86700     Ti( 1.00)

      4 Sym. Ops. (no inversion) found

   Cartesian axes

     site n.     atom                  positions (alat units)
         1           Nb  tau(   1) = (  -1.4406968   2.5740818   4.9129714  )
         2           Ti  tau(   2) = (  -1.5193484   0.8257363   2.4564857  )
         3           Ti  tau(   3) = (   1.5558063   2.6011795   4.9129714  )
         4           Nb  tau(   4) = (  -6.0576462  -1.7944513   2.4564857  )
         5           Ti  tau(   5) = (  -2.9771907  -0.0159477   4.9129714  )
         6           Nb  tau(   6) = (   3.0092263   3.4403103   2.4564857  )

     number of k points=   147  Marzari-Vanderbilt smearing, width (Ry)=  0.2000

     Number of k-points >= 100: set verbosity='high' to print them.

     Check: negative/imaginary core charge=   -0.000002    0.000000

     Initial potential from superposition of free atoms

     starting charge   71.99167, renormalised to   75.00000
     Starting wfc are   69 randomized atomic wfcs

     Self-consistent Calculation

[...]

     iteration # 29     ecut=    33.07 Ry     beta=0.60
     Davidson diagonalization with overlap
     c_bands:  1 eigenvalues not converged
     ethr =  2.62E-12,  avg # of iterations =  6.0

[...]

     total energy              =    -703.84528870 Ry
     Harris-Foulkes estimate   =    -703.84528870 Ry
     estimated scf accuracy    <          9.6E-12 Ry

     iteration # 34     ecut=    33.07 Ry     beta=0.60
     Davidson diagonalization with overlap
     ethr =  1.00E-13,  avg # of iterations =  2.1

     End of self-consistent calculation

     Number of k-points >= 100: set verbosity='high' to print the bands.

     the Fermi energy is    14.8646 ev

!    total energy              =    -703.84528870 Ry
     Harris-Foulkes estimate   =    -703.84528870 Ry
     estimated scf accuracy    <          4.2E-13 Ry

     The total energy is the sum of the following terms:

     one-electron contribution =    -191.63586287 Ry
     hartree contribution      =     124.41084857 Ry
     xc contribution           =     -98.60404803 Ry
     ewald contribution        =    -537.49092853 Ry
     smearing contrib. (-TS)   =      -0.52529785 Ry

     convergence has been achieved in  34 iterations

     Forces acting on atoms (Ry/au):

     atom    1 type  1   force =    -0.00000661   -0.00000381    0.00000000
     atom    2 type  2   force =    -0.00002219   -0.00001281    0.00000000
     atom    3 type  2   force =    -0.00001433   -0.00000827    0.00000000
     atom    4 type  1   force =     0.00001195    0.00000690    0.00000000
     atom    5 type  2   force =     0.00003202    0.00001848    0.00000000
     atom    6 type  1   force =    -0.00000084   -0.00000048    0.00000000

     Total force =     0.000050     Total SCF correction =     0.000002

     entering subroutine stress ...

          total   stress  (Ry/bohr**3)                   (kbar)     P=   -1.22
  -0.00000707   0.00000324   0.00000000         -1.04      0.48      0.00
   0.00000324  -0.00001081   0.00000000          0.48     -1.59      0.00
   0.00000000   0.00000000  -0.00000694          0.00      0.00     -1.02

     General routines

     Parallel routines

   This run was terminated on:  17:44:41  10Mar2018

   JOB DONE.