     Program PWSCF v.6.3MaX starts on 28Mar2020 at 16:33: 0

     R & G space division:  proc/nbgrp/npool/nimage =       4
     Waiting for input...
     Reading input from standard input

     Current dimensions of program PWSCF are:
     Max number of different atomic species (ntypx) = 10
     Max number of k-points (npk) =  40000
     Max angular momentum in pseudopotentials (lmaxx) =  3
     Message from routine iosys:
     minimal I/O required, wf_collect reset to FALSE

     Subspace diagonalization in iterative solution of the eigenvalue problem:
     a serial algorithm will be used

     bravais-lattice index     =            0
     lattice parameter (alat)  =       1.8897  a.u.
     unit-cell volume          =    1077.7903 (a.u.)^3
     number of atoms/cell      =            8
     number of atomic types    =            2
     number of electrons       =       100.00
     number of Kohn-Sham states=           60
     kinetic-energy cutoff     =      40.0000  Ry
     charge density cutoff     =     400.0000  Ry
     convergence threshold     =      1.0E-10
     mixing beta               =       0.6000
     number of iterations used =            8  plain     mixing
     Exchange-correlation      = SLA PW PBE PBE ( 1  4  3  4 0 0)
     nstep                     =           50

     celldm(1)=   1.889726  celldm(2)=   0.000000  celldm(3)=   0.000000
     celldm(4)=   0.000000  celldm(5)=   0.000000  celldm(6)=   0.000000

     crystal axes: (cart. coord. in units of alat)
               a(1) = (  -1.522502   2.637051   4.972461 )
               a(2) = (  -1.522502   2.637051  -4.972461 )
               a(3) = (  -4.567506  -2.637051   0.000000 )

     reciprocal axes: (cart. coord. in units 2 pi/alat)
               b(1) = ( -0.082102  0.142204  0.100554 )
               b(2) = ( -0.082102  0.142204 -0.100554 )
               b(3) = ( -0.164203 -0.094803  0.000000 )

     PseudoPot. # 1 for Nb read from file:
     ./Nb.pbe-nsp-van.UPF
     MD5 check sum: 0a22fc7fb0ba19a08ca5db297a5d2854
     Pseudo is Ultrasoft + core correction, Zval = 13.0
     Generated by new atomic code, or converted to UPF format
     Using radial grid of  887 points,  6 beta functions with:
                l(1) =   0
                l(2) =   0
                l(3) =   1
                l(4) =   1
                l(5) =   2
                l(6) =   2
     Q(r) pseudized with  6 coefficients,  rinner =    1.000   1.000   1.000
                                                       1.000   1.000

     PseudoPot. # 2 for Ti read from file:
     ./Ti.pbe-sp-van_ak.UPF
     MD5 check sum: f98fea3e8887528921fefa5636a534ca
     Pseudo is Ultrasoft, Zval = 12.0
     Generated by new atomic code, or converted to UPF format
     Using radial grid of  851 points,  6 beta functions with:
                l(1) =   0
                l(2) =   0
                l(3) =   1
                l(4) =   1
                l(5) =   2
                l(6) =   2
     Q(r) pseudized with  8 coefficients,  rinner =    1.000   1.000   1.000
                                                       1.000   1.000

     atomic species   valence    mass     pseudopotential
        Nb            13.00    92.90638     Nb( 1.00)
        Ti            12.00    47.86700     Ti( 1.00)

      2 Sym. Ops. (no inversion) found ( 1 have fractional translation)

   Cartesian axes

     site n.     atom                  positions (alat units)
         1           Ti  tau(   1) = (  -7.6125106   2.6370512   0.0000000  )
         2           Ti  tau(   2) = (  -3.0450027   3.5160674  -2.4862307  )
         3           Nb  tau(   3) = (  -4.5675063   2.6370512   0.0000000  )
         4           Ti  tau(   4) = (  -4.5675048   0.8790162  -2.4862307  )
         5           Ti  tau(   5) = (  -6.0900085   0.0000000   0.0000000  )
         6           Nb  tau(   6) = (  -3.0450027   3.5160674   2.4862307  )
         7           Nb  tau(   7) = (  -3.0450042   0.0000000   0.0000000  )
         8           Nb  tau(   8) = (  -4.5675048   0.8790162   2.4862307  )

     number of k points=   306  Marzari-Vanderbilt smearing, width (Ry)=  0.0200

     Number of k-points >= 100: set verbosity='high' to print them.

     Initial potential from superposition of free atoms

     starting charge   95.98889, renormalised to  100.00000
     Starting wfcs are   92 randomized atomic wfcs

     Self-consistent Calculation

     iteration #  1     ecut=    40.00 Ry     beta= 0.60
     Davidson diagonalization with overlap
     ethr =  1.00E-02,  avg # of iterations =  3.1

     total energy              =    -917.19399220 Ry
     Harris-Foulkes estimate   =    -941.94628341 Ry
     estimated scf accuracy    <      31.19481555 Ry

[...]

     End of self-consistent calculation

     Number of k-points >= 100: set verbosity='high' to print the bands.

     the Fermi energy is    13.8369 ev

!    total energy              =    -938.19030580 Ry
     Harris-Foulkes estimate   =    -938.19030580 Ry
     estimated scf accuracy    <          3.0E-11 Ry

     The total energy is the sum of the following terms:

     one-electron contribution =    -272.61918830 Ry
     hartree contribution      =     170.15074089 Ry
     xc contribution           =    -130.99460835 Ry
     ewald contribution        =    -704.71827213 Ry
     smearing contrib. (-TS)   =      -0.00897790 Ry

     convergence has been achieved in  46 iterations

     Forces acting on atoms (cartesian axes, Ry/au):

     atom    1 type  2   force =    -0.00229662   -0.00126252    0.00501426
     atom    2 type  2   force =    -0.00107771   -0.00048322    0.00000000
     atom    3 type  1   force =     0.00209022    0.00128981   -0.00504031
     atom    4 type  2   force =    -0.00173565    0.00106478    0.00000000
     atom    5 type  2   force =    -0.00229662   -0.00126252   -0.00501426
     atom    6 type  1   force =     0.00182736    0.00081973    0.00000000
     atom    7 type  1   force =     0.00209022    0.00128981    0.00504031
     atom    8 type  1   force =     0.00139880   -0.00145589    0.00000000

     Total force =     0.011854     Total SCF correction =     0.000010

     Computing stress (Cartesian axis) and pressure

          total   stress  (Ry/bohr**3)                   (kbar)     P= -125.38
  -0.00091072   0.00000468  -0.00000000       -133.97      0.69     -0.00
   0.00000468  -0.00090979   0.00000000          0.69   -133.83      0.00
   0.00000000  -0.00000000  -0.00073638          0.00     -0.00   -108.33

     BFGS Geometry Optimization

     number of scf cycles    =   1
     number of bfgs steps    =   0

     enthalpy new            =    -938.1903057978 Ry

     new trust radius        =       0.1494958398 bohr
     new conv_thr            =            1.0E-10 Ry

     new unit-cell volume =   1010.34633 a.u.^3 (   149.71788 Ang^3 )
     density =      6.24534 g/cm^3

CELL_PARAMETERS (alat=  1.88972599)
  -1.487529202   2.576893835   4.880920472
  -1.487529202   2.576893835  -4.880920472
  -4.463821059  -2.577605969   0.000000000

ATOMIC_POSITIONS (angstrom)
Ti      -7.440067193   2.575528659   0.002604582
Ti      -2.975819838   3.435488941  -2.440460236
Nb      -4.462123338   2.577204913  -0.002618117
Ti      -4.464305909   0.859039533  -2.440460236
Ti      -5.952537991  -0.001365176  -0.002604582
Nb      -2.974317462   3.436162926   2.440460236
Nb      -2.974594136   0.000311078   0.002618117
Nb      -4.462685150   0.857736185   2.440460236

     NEW-OLD atomic charge density approx. for the potential

     Check: negative/imaginary core charge=   -0.000001    0.000000
     extrapolated charge   93.59242, renormalised to  100.00000

[...]

     iteration #  1     ecut=    40.00 Ry     beta= 0.60
     Davidson diagonalization with overlap
     c_bands:  1 eigenvalues not converged
     c_bands:  1 eigenvalues not converged
     c_bands:  1 eigenvalues not converged
     c_bands:  3 eigenvalues not converged
     c_bands:  3 eigenvalues not converged
     c_bands:  1 eigenvalues not converged
     c_bands:  1 eigenvalues not converged
     c_bands:  2 eigenvalues not converged
     c_bands:  2 eigenvalues not converged
     c_bands:  1 eigenvalues not converged
     c_bands:  1 eigenvalues not converged
     c_bands:  2 eigenvalues not converged
     c_bands:  2 eigenvalues not converged
     c_bands:  2 eigenvalues not converged
     c_bands:  2 eigenvalues not converged
     c_bands:  1 eigenvalues not converged
     c_bands:  1 eigenvalues not converged
     c_bands:  1 eigenvalues not converged
     c_bands:  1 eigenvalues not converged
     c_bands:  1 eigenvalues not converged
     c_bands:  1 eigenvalues not converged
     c_bands:  1 eigenvalues not converged
     c_bands:  1 eigenvalues not converged
     c_bands:  1 eigenvalues not converged
     c_bands:  1 eigenvalues not converged
     c_bands:  2 eigenvalues not converged
     c_bands:  1 eigenvalues not converged
     c_bands:  2 eigenvalues not converged
     c_bands:  1 eigenvalues not converged
     c_bands:  2 eigenvalues not converged
     c_bands:  1 eigenvalues not converged
     c_bands:  1 eigenvalues not converged
     c_bands:  1 eigenvalues not converged
     c_bands:  2 eigenvalues not converged
     c_bands:  1 eigenvalues not converged
     c_bands:  1 eigenvalues not converged
     c_bands:  3 eigenvalues not converged
     c_bands:  1 eigenvalues not converged
     c_bands:  1 eigenvalues not converged
     c_bands:  1 eigenvalues not converged
     c_bands:  1 eigenvalues not converged
     c_bands:  2 eigenvalues not converged
     c_bands:  1 eigenvalues not converged
     c_bands:  1 eigenvalues not converged
     c_bands:  3 eigenvalues not converged
     c_bands:  1 eigenvalues not converged
     c_bands:  1 eigenvalues not converged
     c_bands:  2 eigenvalues not converged
     c_bands:  1 eigenvalues not converged
     c_bands:  1 eigenvalues not converged
     c_bands:  2 eigenvalues not converged
     c_bands:  1 eigenvalues not converged
     c_bands:  1 eigenvalues not converged
     c_bands:  1 eigenvalues not converged
     c_bands:  1 eigenvalues not converged
     c_bands:  1 eigenvalues not converged
     c_bands:  2 eigenvalues not converged
     c_bands:  1 eigenvalues not converged
     c_bands:  1 eigenvalues not converged
     c_bands:  1 eigenvalues not converged
[...]
     c_bands:  1 eigenvalues not converged
     c_bands:  1 eigenvalues not converged
     c_bands:  2 eigenvalues not converged
     c_bands:  1 eigenvalues not converged
     c_bands:  1 eigenvalues not converged
     c_bands:  1 eigenvalues not converged
     c_bands:  1 eigenvalues not converged
     c_bands:  1 eigenvalues not converged
     c_bands:  3 eigenvalues not converged
     c_bands:  1 eigenvalues not converged
     c_bands:  1 eigenvalues not converged
     c_bands:  1 eigenvalues not converged
     c_bands:  1 eigenvalues not converged
     c_bands:  1 eigenvalues not converged
     c_bands:  2 eigenvalues not converged
     ethr =  1.00E-06,  avg # of iterations = 19.4

[...]

     enthalpy old            =    -938.1903057978 Ry
     enthalpy new            =    -938.2337609264 Ry

     CASE: enthalpy_new < enthalpy_old

[...]

     NEW-OLD atomic charge density approx. for the potential

     Check: negative/imaginary core charge=   -0.000001    0.000000
     extrapolated charge  100.06841, renormalised to  100.00000

[...]

     NEW-OLD atomic charge density approx. for the potential
     extrapolated charge   99.83047, renormalised to  100.00000

[...]

     WARNING: bfgs curvature condition failed, Theta= 0.812
     new trust radius        =       0.0096637667 bohr
     new conv_thr            =            1.0E-10 Ry

[...]

     WARNING: bfgs curvature condition failed, Theta= 0.959
     new trust radius        =       0.0453999564 bohr
     new conv_thr            =            1.0E-10 Ry

[...]

     iteration #  4     ecut=    40.00 Ry     beta= 0.60
     Davidson diagonalization with overlap
     c_bands:  1 eigenvalues not converged
     ethr =  2.67E-06,  avg # of iterations =  4.0

[...]

     Threshold (ethr) on eigenvalues was too large:
     Diagonalizing with lowered threshold

     Davidson diagonalization with overlap
     ethr =  3.08E-08,  avg # of iterations =  2.4

[...]

     Self-consistent Calculation

[...]

     Threshold (ethr) on eigenvalues was too large:
     Diagonalizing with lowered threshold

     Davidson diagonalization with overlap
     ethr =  8.29E-09,  avg # of iterations =  2.8

[...]

     total energy              =    -938.32400145 Ry
     Harris-Foulkes estimate   =    -938.32400145 Ry
     estimated scf accuracy    <          4.7E-11 Ry

     iteration # 15     ecut=    40.00 Ry     beta= 0.60
     Davidson diagonalization with overlap
     ethr =  1.00E-13,  avg # of iterations =  1.0

     End of self-consistent calculation

     Number of k-points >= 100: set verbosity='high' to print the bands.

     the Fermi energy is    15.7432 ev

!    total energy              =    -938.32400145 Ry
     Harris-Foulkes estimate   =    -938.32400145 Ry
     estimated scf accuracy    <          7.9E-12 Ry

     The total energy is the sum of the following terms:

     one-electron contribution =    -228.74752196 Ry
     hartree contribution      =     157.45824069 Ry
     xc contribution           =    -131.96989910 Ry
     ewald contribution        =    -735.06585799 Ry
     smearing contrib. (-TS)   =       0.00103691 Ry

     convergence has been achieved in  15 iterations

     Forces acting on atoms (cartesian axes, Ry/au):

     atom    1 type  2   force =     0.00002002   -0.00006220   -0.00003636
     atom    2 type  2   force =     0.00001139    0.00012800   -0.00000000
     atom    3 type  1   force =     0.00002863   -0.00001980   -0.00004523
     atom    4 type  2   force =    -0.00001532   -0.00003907    0.00000000
     atom    5 type  2   force =     0.00002002   -0.00006220    0.00003636
     atom    6 type  1   force =     0.00002654    0.00010604   -0.00000000
     atom    7 type  1   force =     0.00002863   -0.00001980    0.00004523
     atom    8 type  1   force =    -0.00011990   -0.00003096    0.00000000

     Total force =     0.000252     Total SCF correction =     0.000005

     Computing stress (Cartesian axis) and pressure

          total   stress  (Ry/bohr**3)                   (kbar)     P=    0.19
   0.00000143  -0.00000045  -0.00000000          0.21     -0.07     -0.00
  -0.00000045   0.00000111   0.00000000         -0.07      0.16      0.00
  -0.00000000   0.00000000   0.00000141         -0.00      0.00      0.21

     number of scf cycles    =  50
     number of bfgs steps    =  49

     enthalpy old            =    -938.3240009308 Ry
     enthalpy new            =    -938.3240014527 Ry

     CASE: enthalpy_new < enthalpy_old

     new trust radius        =       0.0007561567 bohr
     new conv_thr            =            1.3E-11 Ry

     new unit-cell volume =    946.95517 a.u.^3 (   140.32428 Ang^3 )
     density =      6.66341 g/cm^3

CELL_PARAMETERS (alat=  1.88972599)
  -1.199067280   2.598819427   4.594838290
  -1.199067280   2.598819427  -4.594838290
  -4.471678383  -3.042941774   0.000000000

ATOMIC_POSITIONS (angstrom)
Ti      -6.533852291   1.957004542   0.000335682
Ti      -2.900058120   3.478056687  -2.297419145
Nb      -3.698509616   2.178725023   0.094012630
Ti      -4.495983121   0.878910881  -2.297419145
Ti      -5.334785011  -0.641814885  -0.000335682
Nb      -2.810278306   3.524228206   2.297419145
Nb      -2.499442336  -0.420094405  -0.094012630
Nb      -4.585591068   0.832780113   2.297419145

     NEW-OLD atomic charge density approx. for the potential
     extrapolated charge  100.00969, renormalised to  100.00000

     General routines

     Parallel routines

       3h

   This run was terminated on:  11:36:43  29Mar2020

   JOB DONE.