     Program PWSCF v.6.0 (svn rev. 13079) starts on 27Apr2018 at 15: 6:46

     Current dimensions of program PWSCF are:
     Max number of different atomic species (ntypx) = 10
     Max number of k-points (npk) =  40000
     Max angular momentum in pseudopotentials (lmaxx) =  3

     Subspace diagonalization in iterative solution of the eigenvalue problem:
     a serial algorithm will be used

     bravais-lattice index     =            0
     lattice parameter (alat)  =       1.8897  a.u.
     unit-cell volume          =     586.6735 (a.u.)^3
     number of atoms/cell      =            4
     number of atomic types    =            2
     number of electrons       =        50.00
     number of Kohn-Sham states=           30
     kinetic-energy cutoff     =      50.0000  Ry
     charge density cutoff     =     500.0000  Ry
     convergence threshold     =      1.0E-10
     mixing beta               =       0.6000
     number of iterations used =            8  plain     mixing
     Exchange-correlation      = SLA  PW   PBE  PBE ( 1  4  3  4 0 0)
     nstep                     =           50

     celldm(1)=   1.889726  celldm(2)=   0.000000  celldm(3)=   0.000000
     celldm(4)=   0.000000  celldm(5)=   0.000000  celldm(6)=   0.000000

     crystal axes: (cart. coord. in units of alat)
               a(1) = (   0.000000   3.516063   3.516063 )
               a(2) = (   3.516063   0.000000   3.516063 )
               a(3) = (   3.516063   3.516063   0.000000 )

     reciprocal axes: (cart. coord. in units 2 pi/alat)
               b(1) = ( -0.142205  0.142205  0.142205 )
               b(2) = (  0.142205 -0.142205  0.142205 )
               b(3) = (  0.142205  0.142205 -0.142205 )

     PseudoPot. # 1 for Nb read from file:
     ./Nb.pbe-nsp-van.UPF
     MD5 check sum: 0a22fc7fb0ba19a08ca5db297a5d2854
     Pseudo is Ultrasoft + core correction, Zval = 13.0
     Generated by new atomic code, or converted to UPF format
     Using radial grid of  887 points,  6 beta functions with:
                l(1) =   0
                l(2) =   0
                l(3) =   1
                l(4) =   1
                l(5) =   2
                l(6) =   2
     Q(r) pseudized with  6 coefficients,  rinner =    1.000   1.000   1.000
                                                       1.000   1.000

     PseudoPot. # 2 for Ti read from file:
     ./Ti.pbe-sp-van_ak.UPF
     MD5 check sum: f98fea3e8887528921fefa5636a534ca
     Pseudo is Ultrasoft, Zval = 12.0
     Generated by new atomic code, or converted to UPF format
     Using radial grid of  851 points,  6 beta functions with:
                l(1) =   0
                l(2) =   0
                l(3) =   1
                l(4) =   1
                l(5) =   2
                l(6) =   2
     Q(r) pseudized with  8 coefficients,  rinner =    1.000   1.000   1.000
                                                       1.000   1.000

     atomic species   valence    mass     pseudopotential
        Nb            13.00    92.90638     Nb( 1.00)
        Ti            12.00    47.86700     Ti( 1.00)

     48 Sym. Ops., with inversion, found (24 have fractional translation)

   Cartesian axes

     site n.     atom                  positions (alat units)
         1           Ti  tau(   1) = (   1.7580316   1.7580316   1.7580316  )
         2           Ti  tau(   2) = (   3.5160633   3.5160633   3.5160633  )
         3           Nb  tau(   3) = (   5.2740949   5.2740949   5.2740949  )
         4           Nb  tau(   4) = (   7.0321265   7.0321265   7.0321265  )

     number of k points=    84  Marzari-Vanderbilt smearing, width (Ry)=  0.0200
                       cart. coord. in units 2pi/alat
        k(    1) = (   0.0000000   0.0000000   0.0000000), wk =   0.0009103
        k(    2) = (   0.0109388   0.0109388  -0.0109388), wk =   0.0072827
        k(    3) = (   0.0218776   0.0218776  -0.0218776), wk =   0.0072827
        k(    4) = (   0.0328164   0.0328164  -0.0328164), wk =   0.0072827
        k(    5) = (   0.0437552   0.0437552  -0.0437552), wk =   0.0072827
        k(    6) = (   0.0546940   0.0546940  -0.0546940), wk =   0.0072827
        k(    7) = (   0.0656328   0.0656328  -0.0656328), wk =   0.0072827
        k(    8) = (   0.0218776   0.0000000   0.0000000), wk =   0.0054620
        k(    9) = (   0.0328164   0.0109388  -0.0109388), wk =   0.0218480
        k(   10) = (   0.0437552   0.0218776  -0.0218776), wk =   0.0218480
        k(   11) = (   0.0546940   0.0328164  -0.0328164), wk =   0.0218480
        k(   12) = (   0.0656328   0.0437552  -0.0437552), wk =   0.0218480
        k(   13) = (   0.0765717   0.0546940  -0.0546940), wk =   0.0218480
        k(   14) = (  -0.0546940  -0.0765717   0.0765717), wk =   0.0218480
        k(   15) = (  -0.0437552  -0.0656328   0.0656328), wk =   0.0218480
        k(   16) = (  -0.0328164  -0.0546940   0.0546940), wk =   0.0218480
        k(   17) = (  -0.0218776  -0.0437552   0.0437552), wk =   0.0218480
        k(   18) = (  -0.0109388  -0.0328164   0.0328164), wk =   0.0218480
        k(   19) = (   0.0000000  -0.0218776   0.0218776), wk =   0.0109240
        k(   20) = (   0.0437552   0.0000000   0.0000000), wk =   0.0054620
        k(   21) = (   0.0546940   0.0109388  -0.0109388), wk =   0.0218480
        k(   22) = (   0.0656328   0.0218776  -0.0218776), wk =   0.0218480
        k(   23) = (   0.0765717   0.0328164  -0.0328164), wk =   0.0218480
        k(   24) = (   0.0875105   0.0437552  -0.0437552), wk =   0.0218480
        k(   25) = (  -0.0437552  -0.0875105   0.0875105), wk =   0.0218480
        k(   26) = (  -0.0328164  -0.0765717   0.0765717), wk =   0.0218480
        k(   27) = (  -0.0218776  -0.0656328   0.0656328), wk =   0.0218480
        k(   28) = (  -0.0109388  -0.0546940   0.0546940), wk =   0.0218480
        k(   29) = (   0.0000000  -0.0437552   0.0437552), wk =   0.0109240
        k(   30) = (   0.0656328   0.0000000   0.0000000), wk =   0.0054620
        k(   31) = (   0.0765717   0.0109388  -0.0109388), wk =   0.0218480
        k(   32) = (   0.0875105   0.0218776  -0.0218776), wk =   0.0218480
        k(   33) = (   0.0984493   0.0328164  -0.0328164), wk =   0.0218480
        k(   34) = (  -0.0328164  -0.0984493   0.0984493), wk =   0.0218480
        k(   35) = (  -0.0218776  -0.0875105   0.0875105), wk =   0.0218480
        k(   36) = (  -0.0109388  -0.0765717   0.0765717), wk =   0.0218480
        k(   37) = (   0.0000000  -0.0656328   0.0656328), wk =   0.0109240
        k(   38) = (   0.0875105   0.0000000   0.0000000), wk =   0.0054620
        k(   39) = (   0.0984493   0.0109388  -0.0109388), wk =   0.0218480
        k(   40) = (   0.1093881   0.0218776  -0.0218776), wk =   0.0218480
        k(   41) = (  -0.0218776  -0.1093881   0.1093881), wk =   0.0218480
        k(   42) = (  -0.0109388  -0.0984493   0.0984493), wk =   0.0218480
        k(   43) = (   0.0000000  -0.0875105   0.0875105), wk =   0.0109240
        k(   44) = (   0.1093881   0.0000000   0.0000000), wk =   0.0054620
        k(   45) = (   0.1203269   0.0109388  -0.0109388), wk =   0.0218480
        k(   46) = (  -0.0109388  -0.1203269   0.1203269), wk =   0.0218480
        k(   47) = (   0.0000000  -0.1093881   0.1093881), wk =   0.0109240
        k(   48) = (   0.1312657   0.0000000   0.0000000), wk =   0.0054620
        k(   49) = (   0.0000000  -0.1312657   0.1312657), wk =   0.0109240
        k(   50) = (   0.0437552   0.0218776   0.0000000), wk =   0.0218480
        k(   51) = (   0.0546940   0.0328164  -0.0109388), wk =   0.0436959
        k(   52) = (   0.0656328   0.0437552  -0.0218776), wk =   0.0436959
        k(   53) = (   0.0765717   0.0546940  -0.0328164), wk =   0.0436959
        k(   54) = (  -0.0546940  -0.0765717   0.0984493), wk =   0.0436959
        k(   55) = (   0.0656328   0.0218776   0.0000000), wk =   0.0218480
        k(   56) = (   0.0765717   0.0328164  -0.0109388), wk =   0.0436959
        k(   57) = (   0.0875105   0.0437552  -0.0218776), wk =   0.0436959
        k(   58) = (  -0.0437552  -0.0875105   0.1093881), wk =   0.0436959
        k(   59) = (  -0.0328164  -0.0765717   0.0984493), wk =   0.0436959
        k(   60) = (  -0.0218776  -0.0656328   0.0875105), wk =   0.0436959
[...]
        k(   70) = (  -0.0218776  -0.1093881   0.1312657), wk =   0.0436959
        k(   71) = (  -0.0109388  -0.0984493   0.1203269), wk =   0.0436959
        k(   72) = (   0.0000000  -0.0875105   0.1093881), wk =   0.0218480
        k(   73) = (  -0.0109388  -0.1203269   0.1422045), wk =   0.0218480
        k(   74) = (   0.0000000  -0.1093881   0.1312657), wk =   0.0218480
        k(   75) = (   0.0875105   0.0437552   0.0000000), wk =   0.0218480
        k(   76) = (  -0.0437552  -0.0875105   0.1312657), wk =   0.0436959
        k(   77) = (  -0.0328164  -0.0765717   0.1203269), wk =   0.0436959
        k(   78) = (  -0.0328164  -0.0984493   0.1422045), wk =   0.0218480
        k(   79) = (  -0.0218776  -0.0875105   0.1312657), wk =   0.0436959
        k(   80) = (  -0.0109388  -0.0765717   0.1203269), wk =   0.0436959
        k(   81) = (   0.0000000  -0.0656328   0.1093881), wk =   0.0218480
        k(   82) = (  -0.0109388  -0.0984493   0.1422045), wk =   0.0218480
        k(   83) = (   0.0000000  -0.0875105   0.1312657), wk =   0.0218480
        k(   84) = (  -0.0109388  -0.0765717   0.1422045), wk =   0.0218480

     Initial potential from superposition of free atoms

     starting charge   47.99445, renormalised to   50.00000
     Starting wfc are   46 randomized atomic wfcs

     Self-consistent Calculation

     iteration #  1     ecut=    50.00 Ry     beta=0.60
     Davidson diagonalization with overlap
     ethr =  1.00E-02,  avg # of iterations =  3.0

     total energy              =    -461.93230792 Ry
     Harris-Foulkes estimate   =    -470.69849823 Ry
     estimated scf accuracy    <      11.17860545 Ry

[...]

     iteration # 30     ecut=    50.00 Ry     beta=0.60
     Davidson diagonalization with overlap
     c_bands:  2 eigenvalues not converged
     ethr =  4.80E-09,  avg # of iterations =  1.6

[...]

     End of self-consistent calculation

          k = 0.0000 0.0000 0.0000 (  3479 PWs)   bands (ev):

   -44.8111 -44.7664 -42.4536 -42.3569 -21.0759 -21.0759 -21.0759 -20.9673
   -20.9673 -20.9673 -18.5614 -18.5614 -18.5614 -18.2984 -18.2984 -18.2984
     6.7063  10.0351  10.0351  11.3387  11.3387  11.3387  11.4215  11.4215
    11.4215  12.7832  12.7832  12.7832  14.3112  14.3112

[...]

          k =-0.0547-0.0766 0.0766 (  3507 PWs)   bands (ev):

[...]

     the Fermi energy is    12.1870 ev

!    total energy              =    -469.07397078 Ry
     Harris-Foulkes estimate   =    -469.07397078 Ry
     estimated scf accuracy    <          5.7E-11 Ry

     The total energy is the sum of the following terms:

     one-electron contribution =    -150.74234338 Ry
     hartree contribution      =      89.49840596 Ry
     xc contribution           =     -65.24255188 Ry
     ewald contribution        =    -342.58472813 Ry
     smearing contrib. (-TS)   =      -0.00275334 Ry

     convergence has been achieved in  49 iterations

     Forces acting on atoms (Ry/au):

     atom    1 type  2   force =     0.00000000   -0.00000000   -0.00000000
     atom    2 type  2   force =     0.00000000    0.00000000    0.00000000
     atom    3 type  1   force =     0.00000000    0.00000000    0.00000000
     atom    4 type  1   force =     0.00000000   -0.00000000   -0.00000000

     Total force =     0.000000     Total SCF correction =     0.000000

     entering subroutine stress ...

          total   stress  (Ry/bohr**3)                   (kbar)     P= -197.70
  -0.00134391   0.00000000   0.00000000       -197.70      0.00      0.00
   0.00000000  -0.00134391   0.00000000          0.00   -197.70      0.00
   0.00000000   0.00000000  -0.00134391          0.00      0.00   -197.70

     BFGS Geometry Optimization

     number of scf cycles    =   1
     number of bfgs steps    =   0

     enthalpy new            =    -469.0739707772 Ry

     new trust radius        =       0.1627559553 bohr
     new conv_thr            =            1.0E-10 Ry

     new unit-cell volume =    529.50541 a.u.^3 (    78.46461 Ang^3 )

CELL_PARAMETERS (alat=  1.88972599)
   0.000000000   3.397931608   3.397931608
   3.397931608   0.000000000   3.397931608
   3.397931608   3.397931608   0.000000000

ATOMIC_POSITIONS (angstrom)
Ti       1.698965804   1.698965804   1.698965804
Ti       3.397931608   3.397931608   3.397931608
Nb       5.096897412   5.096897412   5.096897412
Nb       6.795863216   6.795863216   6.795863216

     NEW-OLD atomic charge density approx. for the potential
     extrapolated charge   44.81828, renormalised to   50.00000

[...]

     enthalpy old            =    -469.0739707772 Ry
     enthalpy new            =    -469.1374748595 Ry

     CASE: enthalpy_new < enthalpy_old

[...]

     Threshold (ethr) on eigenvalues was too large:
     Diagonalizing with lowered threshold

     Davidson diagonalization with overlap
     ethr =  3.89E-08,  avg # of iterations =  1.0

[...]

     small trust_radius: resetting bfgs history

[...]

     number of scf cycles    =   7
     number of bfgs steps    =   6

     enthalpy old            =    -469.1617986503 Ry
     enthalpy new            =    -469.1617986504 Ry

     CASE: enthalpy_new < enthalpy_old

     WARNING: bfgs curvature condition failed, Theta= 0.207
     Message from routine bfgs:
     history already reset at previous step: stopping
     small trust_radius: resetting bfgs history

     new trust radius        =       0.0000012888 bohr
     new conv_thr            =            1.0E-12 Ry

     new unit-cell volume =    475.46117 a.u.^3 (    70.45608 Ang^3 )

[...]

ATOMIC_POSITIONS (angstrom)
Ti       1.639077623   1.639077623   1.639077623
Ti       3.278155245   3.278155245   3.278155245
Nb       4.917232868   4.917232868   4.917232868
Nb       6.556310491   6.556310491   6.556310491

     NEW-OLD atomic charge density approx. for the potential
     extrapolated charge   49.99996, renormalised to   50.00000

[...]

     Threshold (ethr) on eigenvalues was too large:
     Diagonalizing with lowered threshold

     Davidson diagonalization with overlap
     ethr =  5.61E-13,  avg # of iterations =  3.1

[...]

     bfgs converged in   8 scf cycles and   7 bfgs steps
     (criteria: energy <  1.0E-10, force <  1.0E-05, cell <  1.0E-03)

     End of BFGS Geometry Optimization

     Final enthalpy =    -469.1617986504 Ry
Begin final coordinates
     new unit-cell volume =    475.46117 a.u.^3 (    70.45608 Ang^3 )

CELL_PARAMETERS (alat=  1.88972599)
   0.000000000   3.278155245   3.278155245
   3.278155245  -0.000000000   3.278155245
   3.278155245   3.278155245  -0.000000000

ATOMIC_POSITIONS (angstrom)
Ti       1.639077623   1.639077623   1.639077623
Ti       3.278155245   3.278155245   3.278155245
Nb       4.917232868   4.917232868   4.917232868
Nb       6.556310491   6.556310491   6.556310491
End final coordinates

     A final scf calculation at the relaxed structure.
     The G-vectors are recalculated for the final unit cell
     Results may differ from those at the preceding step.

   Info: using nr1, nr2, nr3 values from input

   Info: using nr1, nr2, nr3 values from input

     bravais-lattice index     =            0
     lattice parameter (alat)  =       1.8897  a.u.
     unit-cell volume          =     475.4612 (a.u.)^3
     number of atoms/cell      =            4
     number of atomic types    =            2
     number of electrons       =        50.00
     number of Kohn-Sham states=           30
     kinetic-energy cutoff     =      50.0000  Ry
     charge density cutoff     =     500.0000  Ry
     convergence threshold     =      1.0E-12
     mixing beta               =       0.6000
     number of iterations used =            8  plain     mixing
     Exchange-correlation      = SLA  PW   PBE  PBE ( 1  4  3  4 0 0)

     celldm(1)=   1.889726  celldm(2)=   0.000000  celldm(3)=   0.000000
     celldm(4)=   0.000000  celldm(5)=   0.000000  celldm(6)=   0.000000

     crystal axes: (cart. coord. in units of alat)
               a(1) = (   0.000000   3.278155   3.278155 )
               a(2) = (   3.278155  -0.000000   3.278155 )
               a(3) = (   3.278155   3.278155  -0.000000 )

     reciprocal axes: (cart. coord. in units 2 pi/alat)
               b(1) = ( -0.152525  0.152525  0.152525 )
               b(2) = (  0.152525 -0.152525  0.152525 )
               b(3) = (  0.152525  0.152525 -0.152525 )

     PseudoPot. # 1 for Nb read from file:
     ./Nb.pbe-nsp-van.UPF
     MD5 check sum: 0a22fc7fb0ba19a08ca5db297a5d2854
     Pseudo is Ultrasoft + core correction, Zval = 13.0
     Generated by new atomic code, or converted to UPF format
     Using radial grid of  887 points,  6 beta functions with:
                l(1) =   0
                l(2) =   0
                l(3) =   1
                l(4) =   1
                l(5) =   2
                l(6) =   2
     Q(r) pseudized with  6 coefficients,  rinner =    1.000   1.000   1.000
                                                       1.000   1.000

     PseudoPot. # 2 for Ti read from file:
     ./Ti.pbe-sp-van_ak.UPF
     MD5 check sum: f98fea3e8887528921fefa5636a534ca
     Pseudo is Ultrasoft, Zval = 12.0
     Generated by new atomic code, or converted to UPF format
     Using radial grid of  851 points,  6 beta functions with:
                l(1) =   0
                l(2) =   0
                l(3) =   1
                l(4) =   1
                l(5) =   2
                l(6) =   2
     Q(r) pseudized with  8 coefficients,  rinner =    1.000   1.000   1.000
                                                       1.000   1.000

     atomic species   valence    mass     pseudopotential
        Nb            13.00    92.90638     Nb( 1.00)
        Ti            12.00    47.86700     Ti( 1.00)

     48 Sym. Ops., with inversion, found (24 have fractional translation)

   Cartesian axes

     site n.     atom                  positions (alat units)
         1           Ti  tau(   1) = (   1.6390777   1.6390777   1.6390777  )
         2           Ti  tau(   2) = (   3.2781555   3.2781555   3.2781555  )
         3           Nb  tau(   3) = (   4.9172332   4.9172332   4.9172332  )
         4           Nb  tau(   4) = (   6.5563110   6.5563110   6.5563110  )

     number of k points=    84  Marzari-Vanderbilt smearing, width (Ry)=  0.0200
                       cart. coord. in units 2pi/alat
        k(    1) = (   0.0000000   0.0000000   0.0000000), wk =   0.0009103
        k(    2) = (   0.0117327   0.0117327  -0.0117327), wk =   0.0072827
        k(    3) = (   0.0234654   0.0234654  -0.0234654), wk =   0.0072827
        k(    4) = (   0.0351980   0.0351980  -0.0351980), wk =   0.0072827
        k(    5) = (   0.0469307   0.0469307  -0.0469307), wk =   0.0072827
        k(    6) = (   0.0586634   0.0586634  -0.0586634), wk =   0.0072827
        k(    7) = (   0.0703961   0.0703961  -0.0703961), wk =   0.0072827
        k(    8) = (   0.0234654   0.0000000   0.0000000), wk =   0.0054620
        k(    9) = (   0.0351980   0.0117327  -0.0117327), wk =   0.0218480
        k(   10) = (   0.0469307   0.0234654  -0.0234654), wk =   0.0218480
        k(   11) = (   0.0586634   0.0351980  -0.0351980), wk =   0.0218480
        k(   12) = (   0.0703961   0.0469307  -0.0469307), wk =   0.0218480
        k(   13) = (   0.0821287   0.0586634  -0.0586634), wk =   0.0218480
        k(   14) = (  -0.0586634  -0.0821287   0.0821287), wk =   0.0218480
        k(   15) = (  -0.0469307  -0.0703961   0.0703961), wk =   0.0218480
        k(   16) = (  -0.0351980  -0.0586634   0.0586634), wk =   0.0218480
        k(   17) = (  -0.0234654  -0.0469307   0.0469307), wk =   0.0218480
        k(   18) = (  -0.0117327  -0.0351980   0.0351980), wk =   0.0218480
        k(   19) = (   0.0000000  -0.0234654   0.0234654), wk =   0.0109240
        k(   20) = (   0.0469307   0.0000000   0.0000000), wk =   0.0054620
        k(   21) = (   0.0586634   0.0117327  -0.0117327), wk =   0.0218480
        k(   22) = (   0.0703961   0.0234654  -0.0234654), wk =   0.0218480
        k(   23) = (   0.0821287   0.0351980  -0.0351980), wk =   0.0218480
        k(   24) = (   0.0938614   0.0469307  -0.0469307), wk =   0.0218480
        k(   25) = (  -0.0469307  -0.0938614   0.0938614), wk =   0.0218480
        k(   26) = (  -0.0351980  -0.0821287   0.0821287), wk =   0.0218480
        k(   27) = (  -0.0234654  -0.0703961   0.0703961), wk =   0.0218480
        k(   28) = (  -0.0117327  -0.0586634   0.0586634), wk =   0.0218480
        k(   29) = (  -0.0000000  -0.0469307   0.0469307), wk =   0.0109240
        k(   30) = (   0.0703961   0.0000000   0.0000000), wk =   0.0054620
        k(   31) = (   0.0821287   0.0117327  -0.0117327), wk =   0.0218480
        k(   32) = (   0.0938614   0.0234654  -0.0234654), wk =   0.0218480
        k(   33) = (   0.1055941   0.0351980  -0.0351980), wk =   0.0218480
        k(   34) = (  -0.0351980  -0.1055941   0.1055941), wk =   0.0218480
        k(   35) = (  -0.0234654  -0.0938614   0.0938614), wk =   0.0218480
        k(   36) = (  -0.0117327  -0.0821287   0.0821287), wk =   0.0218480
        k(   37) = (  -0.0000000  -0.0703961   0.0703961), wk =   0.0109240
        k(   38) = (   0.0938614   0.0000000   0.0000000), wk =   0.0054620
        k(   39) = (   0.1055941   0.0117327  -0.0117327), wk =   0.0218480
        k(   40) = (   0.1173268   0.0234654  -0.0234654), wk =   0.0218480
        k(   41) = (  -0.0234654  -0.1173268   0.1173268), wk =   0.0218480
        k(   42) = (  -0.0117327  -0.1055941   0.1055941), wk =   0.0218480
        k(   43) = (  -0.0000000  -0.0938614   0.0938614), wk =   0.0109240
        k(   44) = (   0.1173268   0.0000000   0.0000000), wk =   0.0054620
        k(   45) = (   0.1290595   0.0117327  -0.0117327), wk =   0.0218480
        k(   46) = (  -0.0117327  -0.1290595   0.1290595), wk =   0.0218480
        k(   47) = (  -0.0000000  -0.1173268   0.1173268), wk =   0.0109240
        k(   48) = (   0.1407921   0.0000000   0.0000000), wk =   0.0054620
        k(   49) = (  -0.0000000  -0.1407921   0.1407921), wk =   0.0109240
        k(   50) = (   0.0469307   0.0234654   0.0000000), wk =   0.0218480
        k(   51) = (   0.0586634   0.0351980  -0.0117327), wk =   0.0436959
        k(   52) = (   0.0703961   0.0469307  -0.0234654), wk =   0.0436959
        k(   53) = (   0.0821287   0.0586634  -0.0351980), wk =   0.0436959
        k(   54) = (  -0.0586634  -0.0821287   0.1055941), wk =   0.0436959
        k(   55) = (   0.0703961   0.0234654   0.0000000), wk =   0.0218480
        k(   56) = (   0.0821287   0.0351980  -0.0117327), wk =   0.0436959
        k(   57) = (   0.0938614   0.0469307  -0.0234654), wk =   0.0436959
        k(   58) = (  -0.0469307  -0.0938614   0.1173268), wk =   0.0436959
        k(   59) = (  -0.0351980  -0.0821287   0.1055941), wk =   0.0436959
        k(   60) = (  -0.0234654  -0.0703961   0.0938614), wk =   0.0436959
[...]
        k(   70) = (  -0.0234654  -0.1173268   0.1407921), wk =   0.0436959
        k(   71) = (  -0.0117327  -0.1055941   0.1290595), wk =   0.0436959
        k(   72) = (  -0.0000000  -0.0938614   0.1173268), wk =   0.0218480
        k(   73) = (  -0.0117327  -0.1290595   0.1525248), wk =   0.0218480
        k(   74) = (   0.0000000  -0.1173268   0.1407921), wk =   0.0218480
        k(   75) = (   0.0938614   0.0469307   0.0000000), wk =   0.0218480
        k(   76) = (  -0.0469307  -0.0938614   0.1407921), wk =   0.0436959
        k(   77) = (  -0.0351980  -0.0821287   0.1290595), wk =   0.0436959
        k(   78) = (  -0.0351980  -0.1055941   0.1525248), wk =   0.0218480
        k(   79) = (  -0.0234654  -0.0938614   0.1407921), wk =   0.0436959
        k(   80) = (  -0.0117327  -0.0821287   0.1290595), wk =   0.0436959
        k(   81) = (  -0.0000000  -0.0703961   0.1173268), wk =   0.0218480
        k(   82) = (  -0.0117327  -0.1055941   0.1525248), wk =   0.0218480
        k(   83) = (  -0.0000000  -0.0938614   0.1407921), wk =   0.0218480
        k(   84) = (  -0.0117327  -0.0821287   0.1525248), wk =   0.0218480

     Initial potential from superposition of free atoms

     starting charge   47.99445, renormalised to   50.00000
     Starting wfc are   46 randomized atomic wfcs

     Self-consistent Calculation

[...]

     iteration # 23     ecut=    50.00 Ry     beta=0.60
     Davidson diagonalization with overlap
     c_bands:  1 eigenvalues not converged
     ethr =  3.19E-07,  avg # of iterations =  6.1

[...]

     total energy              =    -469.16135028 Ry
     Harris-Foulkes estimate   =    -469.16135028 Ry
     estimated scf accuracy    <          2.0E-12 Ry

     iteration # 46     ecut=    50.00 Ry     beta=0.60
     Davidson diagonalization with overlap
     ethr =  1.00E-13,  avg # of iterations =  1.0

     End of self-consistent calculation

[...]

          k = 0.0939 0.0469 0.0000 (  2836 PWs)   bands (ev):

[...]

          k =-0.0117-0.0821 0.1525 (  2832 PWs)   bands (ev):

   -40.7470 -40.7373 -38.4381 -38.4175 -17.2115 -17.2115 -17.0744 -17.0435
   -16.8773 -16.8706 -14.8893 -14.8746 -14.5557 -14.4955 -14.1878 -14.1815
    12.6400  12.7577  13.0865  13.3129  14.9860  15.0824  15.1240  15.3541
    15.6055  15.7486  15.8354  15.8748  17.6802  17.8319

     the Fermi energy is    15.6958 ev

!    total energy              =    -469.16135028 Ry
     Harris-Foulkes estimate   =    -469.16135028 Ry
     estimated scf accuracy    <          4.5E-13 Ry

     The total energy is the sum of the following terms:

     one-electron contribution =    -114.31199348 Ry
     hartree contribution      =      78.55499753 Ry
     xc contribution           =     -65.95386734 Ry
     ewald contribution        =    -367.44735888 Ry
     smearing contrib. (-TS)   =      -0.00312811 Ry

     convergence has been achieved in  46 iterations

     Forces acting on atoms (Ry/au):

     atom    1 type  2   force =    -0.00000000    0.00000000    0.00000000
     atom    2 type  2   force =     0.00000000    0.00000000    0.00000000
     atom    3 type  1   force =     0.00000000    0.00000000    0.00000000
     atom    4 type  1   force =    -0.00000000    0.00000000    0.00000000

     Total force =     0.000000     Total SCF correction =     0.000000

     entering subroutine stress ...

          total   stress  (Ry/bohr**3)                   (kbar)     P=   -0.84
  -0.00000571   0.00000000   0.00000000         -0.84      0.00      0.00
   0.00000000  -0.00000571  -0.00000000          0.00     -0.84     -0.00
   0.00000000  -0.00000000  -0.00000571          0.00     -0.00     -0.84

     General routines

     Parallel routines

   This run was terminated on:  16:31:31  27Apr2018

   JOB DONE.