     Program PWSCF v.6.0 (svn rev. 13079) starts on  1May2018 at 11:34:46

     Current dimensions of program PWSCF are:
     Max number of different atomic species (ntypx) = 10
     Max number of k-points (npk) =  40000
     Max angular momentum in pseudopotentials (lmaxx) =  3

     Subspace diagonalization in iterative solution of the eigenvalue problem:
     a serial algorithm will be used

     bravais-lattice index     =            0
     lattice parameter (alat)  =       1.8897  a.u.
     unit-cell volume          =     538.8952 (a.u.)^3
     number of atoms/cell      =            4
     number of atomic types    =            2
     number of electrons       =        49.00
     number of Kohn-Sham states=           30
     kinetic-energy cutoff     =      40.0000  Ry
     charge density cutoff     =     400.0000  Ry
     convergence threshold     =      1.0E-10
     mixing beta               =       0.6000
     number of iterations used =            8  plain     mixing
     Exchange-correlation      = SLA  PW   PBE  PBE ( 1  4  3  4 0 0)
     nstep                     =           50

     celldm(1)=   1.889726  celldm(2)=   0.000000  celldm(3)=   0.000000
     celldm(4)=   0.000000  celldm(5)=   0.000000  celldm(6)=   0.000000

     crystal axes: (cart. coord. in units of alat)
               a(1) = (   1.522502  -2.637051   0.000000 )
               a(2) = (   0.000000   0.000000  -4.972461 )
               a(3) = (   4.567506   2.637051   0.000000 )

     reciprocal axes: (cart. coord. in units 2 pi/alat)
               b(1) = (  0.164203 -0.284409  0.000000 )
               b(2) = (  0.000000  0.000000 -0.201108 )
               b(3) = (  0.164203  0.094803  0.000000 )

     PseudoPot. # 1 for Nb read from file:
     ./Nb.pbe-nsp-van.UPF
     MD5 check sum: 0a22fc7fb0ba19a08ca5db297a5d2854
     Pseudo is Ultrasoft + core correction, Zval = 13.0
     Generated by new atomic code, or converted to UPF format
     Using radial grid of  887 points,  6 beta functions with:
                l(1) =   0
                l(2) =   0
                l(3) =   1
                l(4) =   1
                l(5) =   2
                l(6) =   2
     Q(r) pseudized with  6 coefficients,  rinner =    1.000   1.000   1.000
                                                       1.000   1.000

     PseudoPot. # 2 for Ti read from file:
     ./Ti.pbe-sp-van_ak.UPF
     MD5 check sum: f98fea3e8887528921fefa5636a534ca
     Pseudo is Ultrasoft, Zval = 12.0
     Generated by new atomic code, or converted to UPF format
     Using radial grid of  851 points,  6 beta functions with:
                l(1) =   0
                l(2) =   0
                l(3) =   1
                l(4) =   1
                l(5) =   2
                l(6) =   2
     Q(r) pseudized with  8 coefficients,  rinner =    1.000   1.000   1.000
                                                       1.000   1.000

     atomic species   valence    mass     pseudopotential
        Nb            13.00    92.90638     Nb( 1.00)
        Ti            12.00    47.86700     Ti( 1.00)

      4 Sym. Ops. (no inversion) found

   Cartesian axes

     site n.     atom                  positions (alat units)
         1           Ti  tau(   1) = (   3.0450042   0.0000000  -4.9724614  )
         2           Ti  tau(   2) = (   3.0450058  -1.7580350  -2.4862307  )
         3           Ti  tau(   3) = (   6.0900085   0.0000000  -4.9724614  )
         4           Nb  tau(   4) = (   4.5675079   0.8790162  -2.4862307  )

     number of k points=   360  Marzari-Vanderbilt smearing, width (Ry)=  0.0200

     Number of k-points >= 100: set verbosity='high' to print them.

     Initial potential from superposition of free atoms

     starting charge   45.99713, renormalised to   49.00000
     Starting wfc are   43 randomized atomic wfcs

     Self-consistent Calculation

     iteration #  1     ecut=    40.00 Ry     beta=0.60
     Davidson diagonalization with overlap
     ethr =  1.00E-02,  avg # of iterations =  3.7

     total energy              =    -464.09162464 Ry
     Harris-Foulkes estimate   =    -469.29295618 Ry
     estimated scf accuracy    <       6.71020528 Ry

[...]

     iteration # 25     ecut=    40.00 Ry     beta=0.60
     Davidson diagonalization with overlap
     c_bands:  1 eigenvalues not converged
     ethr =  9.06E-06,  avg # of iterations =  1.7

[...]

     End of self-consistent calculation

     Number of k-points >= 100: set verbosity='high' to print the bands.

     the Fermi energy is    12.5698 ev

!    total energy              =    -467.83683107 Ry
     Harris-Foulkes estimate   =    -467.83683107 Ry
     estimated scf accuracy    <          3.9E-11 Ry

     The total energy is the sum of the following terms:

     one-electron contribution =    -163.07461917 Ry
     hartree contribution      =      95.17601381 Ry
     xc contribution           =     -61.58730409 Ry
     ewald contribution        =    -338.34752564 Ry
     smearing contrib. (-TS)   =      -0.00339597 Ry

     convergence has been achieved in  42 iterations

     Forces acting on atoms (Ry/au):

     atom    1 type  2   force =     0.00168969    0.00097554    0.00000000
     atom    2 type  2   force =     0.00171883    0.00099237    0.00000000
     atom    3 type  2   force =    -0.00127815   -0.00073794    0.00000000
     atom    4 type  1   force =    -0.00213037   -0.00122997    0.00000000

     Total force =     0.003997     Total SCF correction =     0.000005

     entering subroutine stress ...

          total   stress  (Ry/bohr**3)                   (kbar)     P= -132.16
  -0.00088386   0.00000978   0.00000000       -130.02      1.44      0.00
   0.00000978  -0.00089515   0.00000000          1.44   -131.68      0.00
   0.00000000   0.00000000  -0.00091616          0.00      0.00   -134.77

     BFGS Geometry Optimization

     number of scf cycles    =   1
     number of bfgs steps    =   0

     enthalpy new            =    -467.8368310659 Ry

     new trust radius        =       0.1063394816 bohr
     new conv_thr            =            1.0E-10 Ry

     new unit-cell volume =    503.39406 a.u.^3 (    74.59530 Ang^3 )

CELL_PARAMETERS (alat=  1.88972599)
   1.488215105  -2.577664360   0.000000000
   0.000000000   0.000000000  -4.858571473
   4.467225553   2.579154061   0.000000000

ATOMIC_POSITIONS (angstrom)
Ti       2.978594844   0.001249752  -4.858571473
Ti       2.978181375  -1.717433590  -2.429285736
Ti       5.954779138   0.001107772  -4.858571473
Nb       4.465694410   0.859825430  -2.429285736

     NEW-OLD atomic charge density approx. for the potential
     extrapolated charge   45.75612, renormalised to   49.00000

[...]

     enthalpy old            =    -467.8368310659 Ry
     enthalpy new            =    -467.8615255869 Ry

     CASE: enthalpy_new < enthalpy_old

[...]

     WARNING: bfgs curvature condition failed, Theta= 0.874
     new trust radius        =       0.0221097067 bohr
     new conv_thr            =            1.0E-10 Ry

[...]

     WARNING: bfgs curvature condition failed, Theta= 0.866
     new trust radius        =       0.0190386398 bohr
     new conv_thr            =            1.0E-10 Ry

[...]

     Threshold (ethr) on eigenvalues was too large:
     Diagonalizing with lowered threshold

     Davidson diagonalization with overlap
     ethr =  6.38E-08,  avg # of iterations =  2.2

[...]

     small trust_radius: resetting bfgs history

[...]

     number of scf cycles    =  31
     number of bfgs steps    =  30

     enthalpy old            =    -467.8722004492 Ry
     enthalpy new            =    -467.8722004606 Ry

     CASE: enthalpy_new < enthalpy_old

     WARNING: bfgs curvature condition failed, Theta= 0.995
     Message from routine bfgs:
     history already reset at previous step: stopping
     small trust_radius: resetting bfgs history

     new trust radius        =       0.0000513295 bohr
     new conv_thr            =            4.4E-12 Ry

     new unit-cell volume =    471.69585 a.u.^3 (    69.89811 Ang^3 )

[...]

ATOMIC_POSITIONS (angstrom)
Ti       3.084041133   0.150714770  -4.726031001
Ti       2.815521477  -1.634174076  -2.363015500
Ti       6.099716533   0.261958567  -4.726031001
Nb       4.334458063   0.872641761  -2.363015500

     NEW-OLD atomic charge density approx. for the potential
     extrapolated charge   49.00001, renormalised to   49.00000

[...]

     Threshold (ethr) on eigenvalues was too large:
     Diagonalizing with lowered threshold

     Davidson diagonalization with overlap
     ethr =  2.41E-11,  avg # of iterations =  3.7

[...]

     bfgs converged in  32 scf cycles and  31 bfgs steps
     (criteria: energy <  1.0E-10, force <  1.0E-05, cell <  1.0E-03)

     End of BFGS Geometry Optimization

     Final enthalpy =    -467.8722004681 Ry
Begin final coordinates
     new unit-cell volume =    471.69585 a.u.^3 (    69.89811 Ang^3 )

CELL_PARAMETERS (alat=  1.88972599)
   1.411497739  -2.444785993   0.000000000
   0.000000000   0.000000000  -4.726031001
   4.537215398   2.619562715   0.000000000

ATOMIC_POSITIONS (angstrom)
Ti       3.084041133   0.150714770  -4.726031001
Ti       2.815521477  -1.634174076  -2.363015500
Ti       6.099716533   0.261958567  -4.726031001
Nb       4.334458063   0.872641761  -2.363015500
End final coordinates

     A final scf calculation at the relaxed structure.
     The G-vectors are recalculated for the final unit cell
     Results may differ from those at the preceding step.

   Info: using nr1, nr2, nr3 values from input

   Info: using nr1, nr2, nr3 values from input

     bravais-lattice index     =            0
     lattice parameter (alat)  =       1.8897  a.u.
     unit-cell volume          =     471.6959 (a.u.)^3
     number of atoms/cell      =            4
     number of atomic types    =            2
     number of electrons       =        49.00
     number of Kohn-Sham states=           30
     kinetic-energy cutoff     =      40.0000  Ry
     charge density cutoff     =     400.0000  Ry
     convergence threshold     =      4.4E-12
     mixing beta               =       0.6000
     number of iterations used =            8  plain     mixing
     Exchange-correlation      = SLA  PW   PBE  PBE ( 1  4  3  4 0 0)

     celldm(1)=   1.889726  celldm(2)=   0.000000  celldm(3)=   0.000000
     celldm(4)=   0.000000  celldm(5)=   0.000000  celldm(6)=   0.000000

     crystal axes: (cart. coord. in units of alat)
               a(1) = (   1.411498  -2.444786   0.000000 )
               a(2) = (   0.000000   0.000000  -4.726031 )
               a(3) = (   4.537215   2.619563   0.000000 )

     reciprocal axes: (cart. coord. in units 2 pi/alat)
               b(1) = (  0.177117 -0.306775  0.000000 )
               b(2) = (  0.000000  0.000000 -0.211594 )
               b(3) = (  0.165300  0.095436  0.000000 )

     PseudoPot. # 1 for Nb read from file:
     ./Nb.pbe-nsp-van.UPF
     MD5 check sum: 0a22fc7fb0ba19a08ca5db297a5d2854
     Pseudo is Ultrasoft + core correction, Zval = 13.0
     Generated by new atomic code, or converted to UPF format
     Using radial grid of  887 points,  6 beta functions with:
                l(1) =   0
                l(2) =   0
                l(3) =   1
                l(4) =   1
                l(5) =   2
                l(6) =   2
     Q(r) pseudized with  6 coefficients,  rinner =    1.000   1.000   1.000
                                                       1.000   1.000

     PseudoPot. # 2 for Ti read from file:
     ./Ti.pbe-sp-van_ak.UPF
     MD5 check sum: f98fea3e8887528921fefa5636a534ca
     Pseudo is Ultrasoft, Zval = 12.0
     Generated by new atomic code, or converted to UPF format
     Using radial grid of  851 points,  6 beta functions with:
                l(1) =   0
                l(2) =   0
                l(3) =   1
                l(4) =   1
                l(5) =   2
                l(6) =   2
     Q(r) pseudized with  8 coefficients,  rinner =    1.000   1.000   1.000
                                                       1.000   1.000

     atomic species   valence    mass     pseudopotential
        Nb            13.00    92.90638     Nb( 1.00)
        Ti            12.00    47.86700     Ti( 1.00)

      4 Sym. Ops. (no inversion) found

   Cartesian axes

     site n.     atom                  positions (alat units)
         1           Ti  tau(   1) = (   3.0840414   0.1507148  -4.7260314  )
         2           Ti  tau(   2) = (   2.8155217  -1.6341742  -2.3630157  )
         3           Ti  tau(   3) = (   6.0997170   0.2619586  -4.7260314  )
         4           Nb  tau(   4) = (   4.3344584   0.8726418  -2.3630157  )

     number of k points=   360  Marzari-Vanderbilt smearing, width (Ry)=  0.0200

     Number of k-points >= 100: set verbosity='high' to print them.

     Initial potential from superposition of free atoms

     starting charge   45.99713, renormalised to   49.00000
     Starting wfc are   43 randomized atomic wfcs

     Self-consistent Calculation

[...]

     iteration #  9     ecut=    40.00 Ry     beta=0.60
     Davidson diagonalization with overlap
     c_bands:  3 eigenvalues not converged
     c_bands:  2 eigenvalues not converged
     c_bands:  1 eigenvalues not converged
     ethr =  2.48E-05,  avg # of iterations =  5.7

[...]

     total energy              =    -467.86868824 Ry
     Harris-Foulkes estimate   =    -467.86868824 Ry
     estimated scf accuracy    <          1.2E-11 Ry

     iteration # 23     ecut=    40.00 Ry     beta=0.60
     Davidson diagonalization with overlap
     ethr =  1.00E-13,  avg # of iterations =  1.0

     End of self-consistent calculation

     Number of k-points >= 100: set verbosity='high' to print the bands.

     the Fermi energy is    14.5794 ev

!    total energy              =    -467.86868824 Ry
     Harris-Foulkes estimate   =    -467.86868824 Ry
     estimated scf accuracy    <          1.4E-12 Ry

     The total energy is the sum of the following terms:

     one-electron contribution =    -140.64612123 Ry
     hartree contribution      =      88.29349619 Ry
     xc contribution           =     -62.01611377 Ry
     ewald contribution        =    -353.50022485 Ry
     smearing contrib. (-TS)   =       0.00027542 Ry

     convergence has been achieved in  23 iterations

     Forces acting on atoms (Ry/au):

     atom    1 type  2   force =     0.00015129    0.00008735    0.00000000
     atom    2 type  2   force =     0.00000551    0.00000318    0.00000000
     atom    3 type  2   force =    -0.00016352   -0.00009441    0.00000000
     atom    4 type  1   force =     0.00000672    0.00000388    0.00000000

     Total force =     0.000257     Total SCF correction =     0.000003

     entering subroutine stress ...

          total   stress  (Ry/bohr**3)                   (kbar)     P=   -5.82
  -0.00003230   0.00001023   0.00000000         -4.75      1.50      0.00
   0.00001023  -0.00004411   0.00000000          1.50     -6.49      0.00
   0.00000000   0.00000000  -0.00004238          0.00      0.00     -6.23

     General routines

     Parallel routines

   This run was terminated on:  17:37:56   1May2018

   JOB DONE.