     Program PWSCF v.6.0 (svn rev. 13079) starts on  1May2018 at 12:48:13

     Current dimensions of program PWSCF are:
     Max number of different atomic species (ntypx) = 10
     Max number of k-points (npk) =  40000
     Max angular momentum in pseudopotentials (lmaxx) =  3

     Subspace diagonalization in iterative solution of the eigenvalue problem:
     a serial algorithm will be used

     bravais-lattice index     =            0
     lattice parameter (alat)  =       1.8897  a.u.
     unit-cell volume          =     440.0051 (a.u.)^3
     number of atoms/cell      =            3
     number of atomic types    =            2
     number of electrons       =        38.00
     number of Kohn-Sham states=           23
     kinetic-energy cutoff     =      50.0000  Ry
     charge density cutoff     =     500.0000  Ry
     convergence threshold     =      1.0E-10
     mixing beta               =       0.6000
     number of iterations used =            8  plain     mixing
     Exchange-correlation      = SLA  PW   PBE  PBE ( 1  4  3  4 0 0)
     nstep                     =           50

     celldm(1)=   1.889726  celldm(2)=   0.000000  celldm(3)=   0.000000
     celldm(4)=   0.000000  celldm(5)=   0.000000  celldm(6)=   0.000000

     crystal axes: (cart. coord. in units of alat)
               a(1) = (  -1.758031   5.274095  -1.758031 )
               a(2) = (   1.758031   5.274095   1.758031 )
               a(3) = (   1.758031  -5.274095  -1.758031 )

     reciprocal axes: (cart. coord. in units 2 pi/alat)
               b(1) = (  0.000000  0.094803 -0.284409 )
               b(2) = (  0.284409  0.094803  0.000000 )
               b(3) = (  0.284409  0.000000 -0.284409 )

     PseudoPot. # 1 for Nb read from file:
     ./Nb.pbe-nsp-van.UPF
     MD5 check sum: 0a22fc7fb0ba19a08ca5db297a5d2854
     Pseudo is Ultrasoft + core correction, Zval = 13.0
     Generated by new atomic code, or converted to UPF format
     Using radial grid of  887 points,  6 beta functions with:
                l(1) =   0
                l(2) =   0
                l(3) =   1
                l(4) =   1
                l(5) =   2
                l(6) =   2
     Q(r) pseudized with  6 coefficients,  rinner =    1.000   1.000   1.000
                                                       1.000   1.000

     PseudoPot. # 2 for Ti read from file:
     ./Ti.pbe-sp-van_ak.UPF
     MD5 check sum: f98fea3e8887528921fefa5636a534ca
     Pseudo is Ultrasoft, Zval = 12.0
     Generated by new atomic code, or converted to UPF format
     Using radial grid of  851 points,  6 beta functions with:
                l(1) =   0
                l(2) =   0
                l(3) =   1
                l(4) =   1
                l(5) =   2
                l(6) =   2
     Q(r) pseudized with  8 coefficients,  rinner =    1.000   1.000   1.000
                                                       1.000   1.000

     atomic species   valence    mass     pseudopotential
        Nb            13.00    92.90638     Nb( 1.00)
        Ti            12.00    47.86700     Ti( 1.00)

      8 Sym. Ops. (no inversion) found
          (note:  8 additional sym.ops. were found but ignored
           their fractional translations are incommensurate with FFT grid)

   Cartesian axes

     site n.     atom                  positions (alat units)
         1           Ti  tau(   1) = (   1.7580316   1.7580316  -1.7580316  )
         2           Nb  tau(   2) = (   1.7580316   5.2740949  -1.7580316  )
         3           Nb  tau(   3) = (   1.7580316  -1.7580316  -1.7580316  )

     number of k points=   244  Marzari-Vanderbilt smearing, width (Ry)=  0.0200

     Number of k-points >= 100: set verbosity='high' to print them.

     Initial potential from superposition of free atoms

     starting charge   36.99449, renormalised to   38.00000
     Starting wfc are   36 randomized atomic wfcs

     Self-consistent Calculation

     iteration #  1     ecut=    50.00 Ry     beta=0.60
     Davidson diagonalization with overlap
     ethr =  1.00E-02,  avg # of iterations =  2.6

     total energy              =    -337.17083882 Ry
     Harris-Foulkes estimate   =    -354.05496672 Ry
     estimated scf accuracy    <      21.18987162 Ry

[...]

     End of self-consistent calculation

     Number of k-points >= 100: set verbosity='high' to print the bands.

     the Fermi energy is    12.9227 ev

!    total energy              =    -352.44118701 Ry
     Harris-Foulkes estimate   =    -352.44118701 Ry
     estimated scf accuracy    <          4.6E-11 Ry

     The total energy is the sum of the following terms:

     one-electron contribution =     -99.82743242 Ry
     hartree contribution      =      62.05991645 Ry
     xc contribution           =     -50.87132149 Ry
     ewald contribution        =    -263.80147973 Ry
     smearing contrib. (-TS)   =      -0.00086982 Ry

     convergence has been achieved in  28 iterations

     Forces acting on atoms (Ry/au):

     atom    1 type  2   force =     0.00000000    0.00000559    0.00000000
     atom    2 type  1   force =     0.00000000   -0.02699548    0.00000000
     atom    3 type  1   force =     0.00000000    0.02698989    0.00000000

     Total force =     0.038173     Total SCF correction =     0.000014

     entering subroutine stress ...

          total   stress  (Ry/bohr**3)                   (kbar)     P= -208.95
  -0.00139358   0.00000000   0.00000000       -205.00      0.00      0.00
   0.00000000  -0.00147414  -0.00000000          0.00   -216.85     -0.00
  -0.00000000   0.00000000  -0.00139358         -0.00      0.00   -205.00

     BFGS Geometry Optimization

     number of scf cycles    =   1
     number of bfgs steps    =   0

     enthalpy new            =    -352.4411870084 Ry

     new trust radius        =       0.1546104717 bohr
     new conv_thr            =            1.0E-10 Ry

     new unit-cell volume =    394.77457 a.u.^3 (    58.49955 Ang^3 )

CELL_PARAMETERS (alat=  1.88972599)
  -1.696782715   5.079725068  -1.696782715
   1.696782715   5.079725068   1.696782715
   1.696782715  -5.079725068  -1.696782715

ATOMIC_POSITIONS (angstrom)
Ti       1.696782715   1.693244536  -1.696782715
Nb       1.696782715   5.065966144  -1.696782715
Nb       1.696782715  -1.679485612  -1.696782715

     NEW-OLD atomic charge density approx. for the potential
     extrapolated charge   33.76143, renormalised to   38.00000

[...]

     iteration #  1     ecut=    50.00 Ry     beta=0.60
     Davidson diagonalization with overlap
     c_bands:  1 eigenvalues not converged
     c_bands:  1 eigenvalues not converged
     c_bands:  1 eigenvalues not converged
     c_bands:  1 eigenvalues not converged
     c_bands:  1 eigenvalues not converged
     c_bands:  1 eigenvalues not converged
     c_bands:  1 eigenvalues not converged
     c_bands:  1 eigenvalues not converged
     c_bands:  1 eigenvalues not converged
     c_bands:  1 eigenvalues not converged
     c_bands:  1 eigenvalues not converged
     c_bands:  1 eigenvalues not converged
     c_bands:  1 eigenvalues not converged
     c_bands:  1 eigenvalues not converged
     c_bands:  1 eigenvalues not converged
     c_bands:  1 eigenvalues not converged
     c_bands:  1 eigenvalues not converged
     c_bands:  1 eigenvalues not converged
     c_bands:  1 eigenvalues not converged
     c_bands:  1 eigenvalues not converged
     c_bands:  1 eigenvalues not converged
     c_bands:  1 eigenvalues not converged
     c_bands:  1 eigenvalues not converged
     c_bands:  1 eigenvalues not converged
     c_bands:  1 eigenvalues not converged
     c_bands:  1 eigenvalues not converged
     c_bands:  1 eigenvalues not converged
     c_bands:  1 eigenvalues not converged
     ethr =  1.00E-06,  avg # of iterations = 15.2

[...]

     enthalpy old            =    -352.4411870084 Ry
     enthalpy new            =    -352.4944763771 Ry

     CASE: enthalpy_new < enthalpy_old

[...]

     Total force =     0.000103     Total SCF correction =     0.000013
     SCF correction compared to forces is large: reduce conv_thr to get better values

[...]

     iteration #  2     ecut=    50.00 Ry     beta=0.60
     Davidson diagonalization with overlap
     c_bands:  1 eigenvalues not converged
     c_bands:  1 eigenvalues not converged
     c_bands:  1 eigenvalues not converged
     ethr =  1.51E-06,  avg # of iterations =  6.1

[...]

     Threshold (ethr) on eigenvalues was too large:
     Diagonalizing with lowered threshold

     Davidson diagonalization with overlap
     ethr =  2.69E-08,  avg # of iterations =  2.0

[...]

     Total force =     0.000029     Total SCF correction =     0.000007
     SCF correction compared to forces is large: reduce conv_thr to get better values

[...]

     small trust_radius: resetting bfgs history

[...]

     number of scf cycles    =  14
     number of bfgs steps    =  13

     enthalpy old            =    -352.5116618076 Ry
     enthalpy new            =    -352.5116618136 Ry

     CASE: enthalpy_new < enthalpy_old

     Message from routine bfgs:
     history already reset at previous step: stopping
     small trust_radius: resetting bfgs history

     new trust radius        =       0.0000159685 bohr
     new conv_thr            =            1.0E-12 Ry

     new unit-cell volume =    359.56261 a.u.^3 (    53.28168 Ang^3 )

[...]

ATOMIC_POSITIONS (angstrom)
Ti       1.655603988   1.619888107  -1.655603988
Nb       1.655603988   4.812865519  -1.655603988
Nb       1.655603988  -1.573102502  -1.655603988

     NEW-OLD atomic charge density approx. for the potential
     extrapolated charge   37.99962, renormalised to   38.00000

[...]

     Threshold (ethr) on eigenvalues was too large:
     Diagonalizing with lowered threshold

     Davidson diagonalization with overlap
     ethr =  3.40E-11,  avg # of iterations =  1.1

[...]

     bfgs converged in  15 scf cycles and  14 bfgs steps
     (criteria: energy <  1.0E-10, force <  1.0E-05, cell <  1.0E-03)

     End of BFGS Geometry Optimization

     Final enthalpy =    -352.5116618141 Ry
Begin final coordinates
     new unit-cell volume =    359.56261 a.u.^3 (    53.28168 Ang^3 )

CELL_PARAMETERS (alat=  1.88972599)
  -1.655603988   4.859651123  -1.655603988
   1.655603988   4.859651123   1.655603988
   1.655603988  -4.859651123  -1.655603988

ATOMIC_POSITIONS (angstrom)
Ti       1.655603988   1.619888107  -1.655603988
Nb       1.655603988   4.812865519  -1.655603988
Nb       1.655603988  -1.573102502  -1.655603988
End final coordinates

     A final scf calculation at the relaxed structure.
     The G-vectors are recalculated for the final unit cell
     Results may differ from those at the preceding step.

   Info: using nr1, nr2, nr3 values from input

   Info: using nr1, nr2, nr3 values from input

     bravais-lattice index     =            0
     lattice parameter (alat)  =       1.8897  a.u.
     unit-cell volume          =     359.5626 (a.u.)^3
     number of atoms/cell      =            3
     number of atomic types    =            2
     number of electrons       =        38.00
     number of Kohn-Sham states=           23
     kinetic-energy cutoff     =      50.0000  Ry
     charge density cutoff     =     500.0000  Ry
     convergence threshold     =      1.0E-12
     mixing beta               =       0.6000
     number of iterations used =            8  plain     mixing
     Exchange-correlation      = SLA  PW   PBE  PBE ( 1  4  3  4 0 0)

     celldm(1)=   1.889726  celldm(2)=   0.000000  celldm(3)=   0.000000
     celldm(4)=   0.000000  celldm(5)=   0.000000  celldm(6)=   0.000000

     crystal axes: (cart. coord. in units of alat)
               a(1) = (  -1.655604   4.859651  -1.655604 )
               a(2) = (   1.655604   4.859651   1.655604 )
               a(3) = (   1.655604  -4.859651  -1.655604 )

     reciprocal axes: (cart. coord. in units 2 pi/alat)
               b(1) = ( -0.000000  0.102888 -0.302005 )
               b(2) = (  0.302005  0.102888  0.000000 )
               b(3) = (  0.302005  0.000000 -0.302005 )

     PseudoPot. # 1 for Nb read from file:
     ./Nb.pbe-nsp-van.UPF
     MD5 check sum: 0a22fc7fb0ba19a08ca5db297a5d2854
     Pseudo is Ultrasoft + core correction, Zval = 13.0
     Generated by new atomic code, or converted to UPF format
     Using radial grid of  887 points,  6 beta functions with:
                l(1) =   0
                l(2) =   0
                l(3) =   1
                l(4) =   1
                l(5) =   2
                l(6) =   2
     Q(r) pseudized with  6 coefficients,  rinner =    1.000   1.000   1.000
                                                       1.000   1.000

     PseudoPot. # 2 for Ti read from file:
     ./Ti.pbe-sp-van_ak.UPF
     MD5 check sum: f98fea3e8887528921fefa5636a534ca
     Pseudo is Ultrasoft, Zval = 12.0
     Generated by new atomic code, or converted to UPF format
     Using radial grid of  851 points,  6 beta functions with:
                l(1) =   0
                l(2) =   0
                l(3) =   1
                l(4) =   1
                l(5) =   2
                l(6) =   2
     Q(r) pseudized with  8 coefficients,  rinner =    1.000   1.000   1.000
                                                       1.000   1.000

     atomic species   valence    mass     pseudopotential
        Nb            13.00    92.90638     Nb( 1.00)
        Ti            12.00    47.86700     Ti( 1.00)

      8 Sym. Ops. (no inversion) found
          (note:  8 additional sym.ops. were found but ignored
           their fractional translations are incommensurate with FFT grid)

   Cartesian axes

     site n.     atom                  positions (alat units)
         1           Ti  tau(   1) = (   1.6556041   1.6198882  -1.6556041  )
         2           Nb  tau(   2) = (   1.6556041   4.8128659  -1.6556041  )
         3           Nb  tau(   3) = (   1.6556041  -1.5731026  -1.6556041  )

     number of k points=   244  Marzari-Vanderbilt smearing, width (Ry)=  0.0200

     Number of k-points >= 100: set verbosity='high' to print them.

     Initial potential from superposition of free atoms

     starting charge   36.99449, renormalised to   38.00000
     Starting wfc are   36 randomized atomic wfcs

     Self-consistent Calculation

[...]

     total energy              =    -352.51130614 Ry
     Harris-Foulkes estimate   =    -352.51130614 Ry
     estimated scf accuracy    <          2.1E-12 Ry

     iteration # 26     ecut=    50.00 Ry     beta=0.60
     Davidson diagonalization with overlap
     ethr =  1.00E-13,  avg # of iterations =  1.1

     End of self-consistent calculation

     Number of k-points >= 100: set verbosity='high' to print the bands.

     the Fermi energy is    16.4587 ev

!    total energy              =    -352.51130614 Ry
     Harris-Foulkes estimate   =    -352.51130614 Ry
     estimated scf accuracy    <          1.3E-13 Ry

     The total energy is the sum of the following terms:

     one-electron contribution =     -73.72446274 Ry
     hartree contribution      =      54.52929179 Ry
     xc contribution           =     -51.42961537 Ry
     ewald contribution        =    -281.88511631 Ry
     smearing contrib. (-TS)   =      -0.00140352 Ry

     convergence has been achieved in  26 iterations

     Forces acting on atoms (Ry/au):

     atom    1 type  2   force =     0.00000000   -0.00000214   -0.00000000
     atom    2 type  1   force =     0.00000000   -0.00002210   -0.00000000
     atom    3 type  1   force =    -0.00000000    0.00002425    0.00000000

     Total force =     0.000033     Total SCF correction =     0.000001

     entering subroutine stress ...

          total   stress  (Ry/bohr**3)                   (kbar)     P=   -1.17
  -0.00000801   0.00000000  -0.00000000         -1.18      0.00     -0.00
   0.00000000  -0.00000774  -0.00000000          0.00     -1.14     -0.00
  -0.00000000   0.00000000  -0.00000801         -0.00      0.00     -1.18

     General routines

     Parallel routines

   This run was terminated on:  16:13:45   1May2018

   JOB DONE.