     Program PWSCF v.6.3MaX starts on 27Jan2020 at 13:37:49

     R & G space division:  proc/nbgrp/npool/nimage =       4
     Waiting for input...
     Reading input from standard input

     Current dimensions of program PWSCF are:
     Max number of different atomic species (ntypx) = 10
     Max number of k-points (npk) =  40000
     Max angular momentum in pseudopotentials (lmaxx) =  3
     Message from routine iosys:
     minimal I/O required, wf_collect reset to FALSE

     Subspace diagonalization in iterative solution of the eigenvalue problem:
     a serial algorithm will be used

     bravais-lattice index     =            0
     lattice parameter (alat)  =       1.8897  a.u.
     unit-cell volume          =     808.3427 (a.u.)^3
     number of atoms/cell      =            6
     number of atomic types    =            2
     number of electrons       =        76.00
     number of Kohn-Sham states=           46
     kinetic-energy cutoff     =      40.0000  Ry
     charge density cutoff     =     400.0000  Ry
     convergence threshold     =      1.0E-10
     mixing beta               =       0.6000
     number of iterations used =            8  plain     mixing
     Exchange-correlation      = SLA PW PBE PBE ( 1  4  3  4 0 0)
     nstep                     =           50

     celldm(1)=   1.889726  celldm(2)=   0.000000  celldm(3)=   0.000000
     celldm(4)=   0.000000  celldm(5)=   0.000000  celldm(6)=   0.000000

     crystal axes: (cart. coord. in units of alat)
               a(1) = (   3.045004   0.000000   4.972461 )
               a(2) = (  -1.522502   2.637051   4.972461 )
               a(3) = (  -1.522502  -2.637051   4.972461 )

     reciprocal axes: (cart. coord. in units 2 pi/alat)
               b(1) = (  0.218938  0.000000  0.067036 )
               b(2) = ( -0.109469  0.189606  0.067036 )
               b(3) = ( -0.109469 -0.189606  0.067036 )

     PseudoPot. # 1 for Nb read from file:
     ./Nb.pbe-nsp-van.UPF
     MD5 check sum: 0a22fc7fb0ba19a08ca5db297a5d2854
     Pseudo is Ultrasoft + core correction, Zval = 13.0
     Generated by new atomic code, or converted to UPF format
     Using radial grid of  887 points,  6 beta functions with:
                l(1) =   0
                l(2) =   0
                l(3) =   1
                l(4) =   1
                l(5) =   2
                l(6) =   2
     Q(r) pseudized with  6 coefficients,  rinner =    1.000   1.000   1.000
                                                       1.000   1.000

     PseudoPot. # 2 for Ti read from file:
     ./Ti.pbe-sp-van_ak.UPF
     MD5 check sum: f98fea3e8887528921fefa5636a534ca
     Pseudo is Ultrasoft, Zval = 12.0
     Generated by new atomic code, or converted to UPF format
     Using radial grid of  851 points,  6 beta functions with:
                l(1) =   0
                l(2) =   0
                l(3) =   1
                l(4) =   1
                l(5) =   2
                l(6) =   2
     Q(r) pseudized with  8 coefficients,  rinner =    1.000   1.000   1.000
                                                       1.000   1.000

     atomic species   valence    mass     pseudopotential
        Nb            13.00    92.90638     Nb( 1.00)
        Ti            12.00    47.86700     Ti( 1.00)

      6 Sym. Ops. (no inversion) found ( 3 have fractional translation)

   Cartesian axes

     site n.     atom                  positions (alat units)
         1           Ti  tau(   1) = (   0.0000000   0.0000000   9.9449228  )
         2           Nb  tau(   2) = (   0.0000015  -1.7580350   7.4586921  )
         3           Ti  tau(   3) = (   0.0000000   0.0000000  14.9173841  )
         4           Nb  tau(   4) = (   1.5225036   0.8790162   7.4586921  )
         5           Nb  tau(   5) = (   0.0000000   0.0000000   4.9724614  )
         6           Nb  tau(   6) = (  -1.5225006   0.8790162   7.4586921  )

     number of k points=   189  Marzari-Vanderbilt smearing, width (Ry)=  0.0200

     Number of k-points >= 100: set verbosity='high' to print them.

     Initial potential from superposition of free atoms

     starting charge   73.98898, renormalised to   76.00000
     Starting wfcs are   72 randomized atomic wfcs

     Self-consistent Calculation

     iteration #  1     ecut=    40.00 Ry     beta= 0.60
     Davidson diagonalization with overlap
     ethr =  1.00E-02,  avg # of iterations =  2.2

     total energy              =    -672.02941560 Ry
     Harris-Foulkes estimate   =    -708.09715318 Ry
     estimated scf accuracy    <      45.19005628 Ry

[...]

     iteration # 16     ecut=    40.00 Ry     beta= 0.60
     Davidson diagonalization with overlap
     c_bands:  1 eigenvalues not converged
     ethr =  1.45E-06,  avg # of iterations =  6.7

[...]

     End of self-consistent calculation

     Number of k-points >= 100: set verbosity='high' to print the bands.

     the Fermi energy is    14.6566 ev

!    total energy              =    -704.90675710 Ry
     Harris-Foulkes estimate   =    -704.90675710 Ry
     estimated scf accuracy    <          7.5E-12 Ry

     The total energy is the sum of the following terms:

     one-electron contribution =    -177.55882520 Ry
     hartree contribution      =     117.49146590 Ry
     xc contribution           =    -102.15858314 Ry
     ewald contribution        =    -542.67738042 Ry
     smearing contrib. (-TS)   =      -0.00343424 Ry

     convergence has been achieved in  26 iterations

     Forces acting on atoms (cartesian axes, Ry/au):

     atom    1 type  2   force =     0.00000000    0.00000000   -0.00097310
     atom    2 type  1   force =     0.00071622   -0.00041351    0.00000000
     atom    3 type  2   force =     0.00000000    0.00000000    0.00097310
     atom    4 type  1   force =     0.00000000    0.00082701    0.00000000
     atom    5 type  1   force =     0.00000000    0.00000000    0.00000000
     atom    6 type  1   force =    -0.00071622   -0.00041351    0.00000000

     Total force =     0.001986     Total SCF correction =     0.000003

     Computing stress (Cartesian axis) and pressure

          total   stress  (Ry/bohr**3)                   (kbar)     P= -119.81
  -0.00091137   0.00000000   0.00000000       -134.07      0.00      0.00
  -0.00000000  -0.00091137   0.00000000         -0.00   -134.07      0.00
   0.00000000  -0.00000000  -0.00062067          0.00     -0.00    -91.30

     BFGS Geometry Optimization

     number of scf cycles    =   1
     number of bfgs steps    =   0

     enthalpy new            =    -704.9067571013 Ry

     new trust radius        =       0.1295575715 bohr
     new conv_thr            =            1.0E-10 Ry

     new unit-cell volume =    759.94965 a.u.^3 (   112.61292 Ang^3 )
     density =      6.89147 g/cm^3

CELL_PARAMETERS (alat=  1.88972599)
   2.975625820   0.000000000   4.895305047
  -1.487812910   2.576967738   4.895305047
  -1.487812910  -2.576967738   4.895305047

ATOMIC_POSITIONS (angstrom)
Ti       0.000000000   0.000000000   9.790103143
Nb       0.000371858  -1.718193184   7.342957570
Ti       0.000000000   0.000000000  14.686422092
Nb       1.487814398   0.859416053   7.342957570
Nb       0.000000000   0.000000000   4.895305047
Nb      -1.488181791   0.858774554   7.342957570

     NEW-OLD atomic charge density approx. for the potential

     Check: negative/imaginary core charge=   -0.000001    0.000000
     extrapolated charge   71.28843, renormalised to   76.00000

[...]

     enthalpy old            =    -704.9067571013 Ry
     enthalpy new            =    -704.9362662428 Ry

     CASE: enthalpy_new < enthalpy_old

[...]

     WARNING: bfgs curvature condition failed, Theta= 0.958
     new trust radius        =       0.0444260059 bohr
     new conv_thr            =            1.0E-10 Ry

[...]

     iteration #  1     ecut=    40.00 Ry     beta= 0.60
     Davidson diagonalization with overlap
     c_bands:  1 eigenvalues not converged
     c_bands:  1 eigenvalues not converged
     c_bands:  1 eigenvalues not converged
     c_bands:  1 eigenvalues not converged
     c_bands:  1 eigenvalues not converged
     c_bands:  1 eigenvalues not converged
     c_bands:  1 eigenvalues not converged
     c_bands:  1 eigenvalues not converged
     c_bands:  1 eigenvalues not converged
     c_bands:  2 eigenvalues not converged
     c_bands:  1 eigenvalues not converged
     ethr =  1.00E-06,  avg # of iterations =  8.3

[...]

     Threshold (ethr) on eigenvalues was too large:
     Diagonalizing with lowered threshold

     Davidson diagonalization with overlap
     ethr =  9.56E-08,  avg # of iterations =  2.1

[...]

     Total force =     0.000003     Total SCF correction =     0.000001
     SCF correction compared to forces is large: reduce conv_thr to get better values

[...]

     small trust_radius: resetting bfgs history

[...]

     number of scf cycles    =  17
     number of bfgs steps    =  16

     enthalpy old            =    -704.9466883879 Ry
     enthalpy new            =    -704.9466883881 Ry

     CASE: enthalpy_new < enthalpy_old

     Message from routine bfgs:
     history already reset at previous step: stopping
     small trust_radius: resetting bfgs history

     new trust radius        =       0.0000042753 bohr
     new conv_thr            =            1.0E-12 Ry

     new unit-cell volume =    732.57312 a.u.^3 (   108.55614 Ang^3 )
     density =      7.14901 g/cm^3

[...]

ATOMIC_POSITIONS (angstrom)
Ti      -0.000000000   0.000000000  10.121778064
Nb       0.005365830  -1.662414587   7.587768928
Ti      -0.000000000   0.000000000  15.170785029
Nb       1.437011675   0.835851749   7.587768928
Nb      -0.000000000   0.000000000   5.058512619
Nb      -1.442373193   0.826560349   7.587768928

     NEW-OLD atomic charge density approx. for the potential

     Check: negative/imaginary core charge=   -0.000001    0.000000
     extrapolated charge   76.00009, renormalised to   76.00000

[...]

     Threshold (ethr) on eigenvalues was too large:
     Diagonalizing with lowered threshold

     Davidson diagonalization with overlap
     ethr =  7.84E-13,  avg # of iterations =  3.4

[...]

     bfgs converged in  18 scf cycles and  17 bfgs steps
     (criteria: energy <  1.0E-10 Ry, force <  1.0E-05Ry/Bohr, cell <  1.0E-03kbar)

     End of BFGS Geometry Optimization

     Final enthalpy =    -704.9466883880 Ry
Begin final coordinates
     new unit-cell volume =    732.57312 a.u.^3 (   108.55614 Ang^3 )
     density =      7.14901 g/cm^3

CELL_PARAMETERS (alat=  1.88972599)
   2.874020475   0.000000000   5.058512619
  -1.437010238   2.488974935   5.058512619
  -1.437010238  -2.488974935   5.058512619

ATOMIC_POSITIONS (angstrom)
Ti      -0.000000000   0.000000000  10.121778064
Nb       0.005365830  -1.662414587   7.587768928
Ti      -0.000000000   0.000000000  15.170785029
Nb       1.437011675   0.835851749   7.587768928
Nb      -0.000000000   0.000000000   5.058512619
Nb      -1.442373193   0.826560349   7.587768928
End final coordinates

     A final scf calculation at the relaxed structure.
     The G-vectors are recalculated for the final unit cell
     Results may differ from those at the preceding step.

     bravais-lattice index     =            0
     lattice parameter (alat)  =       1.8897  a.u.
     unit-cell volume          =     732.5731 (a.u.)^3
     number of atoms/cell      =            6
     number of atomic types    =            2
     number of electrons       =        76.00
     number of Kohn-Sham states=           46
     kinetic-energy cutoff     =      40.0000  Ry
     charge density cutoff     =     400.0000  Ry
     convergence threshold     =      1.0E-12
     mixing beta               =       0.6000
     number of iterations used =            8  plain     mixing
     Exchange-correlation      = SLA PW PBE PBE ( 1  4  3  4 0 0)

     celldm(1)=   1.889726  celldm(2)=   0.000000  celldm(3)=   0.000000
     celldm(4)=   0.000000  celldm(5)=   0.000000  celldm(6)=   0.000000

     crystal axes: (cart. coord. in units of alat)
               a(1) = (   2.874020   0.000000   5.058513 )
               a(2) = (  -1.437010   2.488975   5.058513 )
               a(3) = (  -1.437010  -2.488975   5.058513 )

     reciprocal axes: (cart. coord. in units 2 pi/alat)
               b(1) = (  0.231963  0.000000  0.065896 )
               b(2) = ( -0.115982  0.200886  0.065896 )
               b(3) = ( -0.115982 -0.200886  0.065896 )

     PseudoPot. # 1 for Nb read from file:
     ./Nb.pbe-nsp-van.UPF
     MD5 check sum: 0a22fc7fb0ba19a08ca5db297a5d2854
     Pseudo is Ultrasoft + core correction, Zval = 13.0
     Generated by new atomic code, or converted to UPF format
     Using radial grid of  887 points,  6 beta functions with:
                l(1) =   0
                l(2) =   0
                l(3) =   1
                l(4) =   1
                l(5) =   2
                l(6) =   2
     Q(r) pseudized with  6 coefficients,  rinner =    1.000   1.000   1.000
                                                       1.000   1.000

     PseudoPot. # 2 for Ti read from file:
     ./Ti.pbe-sp-van_ak.UPF
     MD5 check sum: f98fea3e8887528921fefa5636a534ca
     Pseudo is Ultrasoft, Zval = 12.0
     Generated by new atomic code, or converted to UPF format
     Using radial grid of  851 points,  6 beta functions with:
                l(1) =   0
                l(2) =   0
                l(3) =   1
                l(4) =   1
                l(5) =   2
                l(6) =   2
     Q(r) pseudized with  8 coefficients,  rinner =    1.000   1.000   1.000
                                                       1.000   1.000

     atomic species   valence    mass     pseudopotential
        Nb            13.00    92.90638     Nb( 1.00)
        Ti            12.00    47.86700     Ti( 1.00)

      6 Sym. Ops. (no inversion) found ( 3 have fractional translation)

   Cartesian axes

     site n.     atom                  positions (alat units)
         1           Ti  tau(   1) = (  -0.0000000   0.0000000  10.1217788  )
         2           Nb  tau(   2) = (   0.0053658  -1.6624147   7.5877695  )
         3           Ti  tau(   3) = (  -0.0000000   0.0000000  15.1707862  )
         4           Nb  tau(   4) = (   1.4370118   0.8358518   7.5877695  )
         5           Nb  tau(   5) = (  -0.0000000   0.0000000   5.0585130  )
         6           Nb  tau(   6) = (  -1.4423733   0.8265604   7.5877695  )

     number of k points=   189  Marzari-Vanderbilt smearing, width (Ry)=  0.0200

     Number of k-points >= 100: set verbosity='high' to print them.

     Check: negative/imaginary core charge=   -0.000001    0.000000

     Initial potential from superposition of free atoms

     starting charge   73.98898, renormalised to   76.00000
     Starting wfcs are   72 randomized atomic wfcs

     Self-consistent Calculation

[...]

     total energy              =    -704.94432995 Ry
     Harris-Foulkes estimate   =    -704.94432995 Ry
     estimated scf accuracy    <          2.1E-12 Ry

     iteration # 34     ecut=    40.00 Ry     beta= 0.60
     Davidson diagonalization with overlap
     ethr =  1.00E-13,  avg # of iterations =  1.0

     End of self-consistent calculation

     Number of k-points >= 100: set verbosity='high' to print the bands.

     the Fermi energy is    16.3980 ev

!    total energy              =    -704.94432995 Ry
     Harris-Foulkes estimate   =    -704.94432995 Ry
     estimated scf accuracy    <          8.9E-13 Ry

     The total energy is the sum of the following terms:

     one-electron contribution =    -152.38077749 Ry
     hartree contribution      =     110.48117666 Ry
     xc contribution           =    -102.74726278 Ry
     ewald contribution        =    -560.29550962 Ry
     smearing contrib. (-TS)   =      -0.00195672 Ry

     convergence has been achieved in  34 iterations

     Forces acting on atoms (cartesian axes, Ry/au):

     atom    1 type  2   force =    -0.00000000    0.00000000    0.00002427
     atom    2 type  1   force =    -0.00000151    0.00000087   -0.00000000
     atom    3 type  2   force =     0.00000000    0.00000000   -0.00002427
     atom    4 type  1   force =    -0.00000000   -0.00000174   -0.00000000
     atom    5 type  1   force =    -0.00000000   -0.00000000    0.00000000
     atom    6 type  1   force =     0.00000151    0.00000087    0.00000000

     Total force =     0.000034     Total SCF correction =     0.000000

     Computing stress (Cartesian axis) and pressure

          total   stress  (Ry/bohr**3)                   (kbar)     P=   -1.22
  -0.00001206   0.00000000  -0.00000000         -1.77      0.00     -0.00
  -0.00000000  -0.00001206   0.00000000         -0.00     -1.77      0.00
  -0.00000000   0.00000000  -0.00000078         -0.00      0.00     -0.11

     General routines

     Parallel routines

      39h

   This run was terminated on:  16:16:55  27Jan2020

   JOB DONE.