     Program PWSCF v.6.3MaX starts on 10Feb2020 at 13:10:21

     R & G space division:  proc/nbgrp/npool/nimage =       4
     Waiting for input...
     Reading input from standard input

     Current dimensions of program PWSCF are:
     Max number of different atomic species (ntypx) = 10
     Max number of k-points (npk) =  40000
     Max angular momentum in pseudopotentials (lmaxx) =  3
     Message from routine iosys:
     minimal I/O required, wf_collect reset to FALSE

     Subspace diagonalization in iterative solution of the eigenvalue problem:
     a serial algorithm will be used

     bravais-lattice index     =            0
     lattice parameter (alat)  =       1.8897  a.u.
     unit-cell volume          =     880.0102 (a.u.)^3
     number of atoms/cell      =            6
     number of atomic types    =            2
     number of electrons       =        74.00
     number of Kohn-Sham states=           44
     kinetic-energy cutoff     =      50.0000  Ry
     charge density cutoff     =     500.0000  Ry
     convergence threshold     =      1.0E-10
     mixing beta               =       0.6000
     number of iterations used =            8  plain     mixing
     Exchange-correlation      = SLA PW PBE PBE ( 1  4  3  4 0 0)
     nstep                     =           50

     celldm(1)=   1.889726  celldm(2)=   0.000000  celldm(3)=   0.000000
     celldm(4)=   0.000000  celldm(5)=   0.000000  celldm(6)=   0.000000

     crystal axes: (cart. coord. in units of alat)
               a(1) = (  -1.758031  -1.758031  -1.758031 )
               a(2) = (   1.758031   1.758031  -5.274095 )
               a(3) = (   5.274095  -5.274095  -1.758031 )

     reciprocal axes: (cart. coord. in units 2 pi/alat)
               b(1) = ( -0.237008 -0.189606 -0.142205 )
               b(2) = (  0.047402  0.094803 -0.142205 )
               b(3) = (  0.094803 -0.094803  0.000000 )

     PseudoPot. # 1 for Nb read from file:
     ./Nb.pbe-nsp-van.UPF
     MD5 check sum: 0a22fc7fb0ba19a08ca5db297a5d2854
     Pseudo is Ultrasoft + core correction, Zval = 13.0
     Generated by new atomic code, or converted to UPF format
     Using radial grid of  887 points,  6 beta functions with:
                l(1) =   0
                l(2) =   0
                l(3) =   1
                l(4) =   1
                l(5) =   2
                l(6) =   2
     Q(r) pseudized with  6 coefficients,  rinner =    1.000   1.000   1.000
                                                       1.000   1.000

     PseudoPot. # 2 for Ti read from file:
     ./Ti.pbe-sp-van_ak.UPF
     MD5 check sum: f98fea3e8887528921fefa5636a534ca
     Pseudo is Ultrasoft, Zval = 12.0
     Generated by new atomic code, or converted to UPF format
     Using radial grid of  851 points,  6 beta functions with:
                l(1) =   0
                l(2) =   0
                l(3) =   1
                l(4) =   1
                l(5) =   2
                l(6) =   2
     Q(r) pseudized with  8 coefficients,  rinner =    1.000   1.000   1.000
                                                       1.000   1.000

     atomic species   valence    mass     pseudopotential
        Nb            13.00    92.90638     Nb( 1.00)
        Ti            12.00    47.86700     Ti( 1.00)

     No symmetry found
          (note:  1 additional sym.ops. were found but ignored
           their fractional translations are incommensurate with FFT grid)

   Cartesian axes

     site n.     atom                  positions (alat units)
         1           Ti  tau(   1) = (   3.5160633  -3.5160633  -7.0321265  )
         2           Ti  tau(   2) = (   1.7580316  -1.7580316  -5.2740949  )
         3           Ti  tau(   3) = (   5.2740949  -5.2740949  -5.2740949  )
         4           Ti  tau(   4) = (   3.5160633  -3.5160633  -3.5160633  )
         5           Nb  tau(   5) = (   1.7580316  -1.7580316  -1.7580316  )
         6           Nb  tau(   6) = (   5.2740949  -5.2740949  -8.7901582  )

     number of k points=   762  Marzari-Vanderbilt smearing, width (Ry)=  0.0200

     Number of k-points >= 100: set verbosity='high' to print them.

     Initial potential from superposition of free atoms

     starting charge   69.99436, renormalised to   74.00000
     Starting wfcs are   66 randomized atomic wfcs

     Self-consistent Calculation

     iteration #  1     ecut=    50.00 Ry     beta= 0.60
     Davidson diagonalization with overlap
     ethr =  1.00E-02,  avg # of iterations =  3.7

     total energy              =    -677.72466930 Ry
     Harris-Foulkes estimate   =    -706.09424257 Ry
     estimated scf accuracy    <      35.20755740 Ry

[...]

     iteration # 25     ecut=    50.00 Ry     beta= 0.60
     Davidson diagonalization with overlap
     c_bands:  1 eigenvalues not converged
     c_bands:  1 eigenvalues not converged
     c_bands:  1 eigenvalues not converged
     c_bands:  2 eigenvalues not converged
     c_bands:  1 eigenvalues not converged
     c_bands:  1 eigenvalues not converged
     c_bands:  1 eigenvalues not converged
     c_bands:  1 eigenvalues not converged
     c_bands:  1 eigenvalues not converged
     ethr =  1.32E-05,  avg # of iterations =  8.8

[...]

     End of self-consistent calculation

     Number of k-points >= 100: set verbosity='high' to print the bands.

     the Fermi energy is    11.4326 ev

!    total energy              =    -702.32160287 Ry
     Harris-Foulkes estimate   =    -702.32160287 Ry
     estimated scf accuracy    <          9.0E-11 Ry

     The total energy is the sum of the following terms:

     one-electron contribution =    -252.84186853 Ry
     hartree contribution      =     144.63495214 Ry
     xc contribution           =     -93.99595997 Ry
     ewald contribution        =    -500.11731374 Ry
     smearing contrib. (-TS)   =      -0.00141277 Ry

     convergence has been achieved in  43 iterations

     Forces acting on atoms (cartesian axes, Ry/au):

     atom    1 type  2   force =     0.00123484    0.00055203   -0.01039580
     atom    2 type  2   force =    -0.00358025    0.00392615   -0.00510512
     atom    3 type  2   force =     0.00357077   -0.00394291    0.00513080
     atom    4 type  2   force =    -0.00122339   -0.00053181    0.01036470
     atom    5 type  1   force =    -0.00311628    0.00562313    0.00715074
     atom    6 type  1   force =     0.00311430   -0.00562659   -0.00714533

     Total force =     0.022647     Total SCF correction =     0.000014

     Computing stress (Cartesian axis) and pressure

          total   stress  (Ry/bohr**3)                   (kbar)     P= -189.29
  -0.00128428  -0.00000192  -0.00000517       -188.92     -0.28     -0.76
  -0.00000192  -0.00129296  -0.00002042         -0.28   -190.20     -3.00
  -0.00000517  -0.00002042  -0.00128312         -0.76     -3.00   -188.75

     BFGS Geometry Optimization

     number of scf cycles    =   1
     number of bfgs steps    =   0

     enthalpy new            =    -702.3216028657 Ry

     new trust radius        =       0.1918020533 bohr
     new conv_thr            =            1.0E-10 Ry

     new unit-cell volume =    797.78379 a.u.^3 (   118.21936 Ang^3 )
     density =      5.29938 g/cm^3

CELL_PARAMETERS (alat=  1.88972599)
  -1.701274372  -1.700222855  -1.700512402
   1.702183671   1.703813297  -5.106036946
   5.105239226  -5.102970599  -1.699626480

ATOMIC_POSITIONS (angstrom)
Ti       3.404883735  -3.398702910  -6.810533764
Ti       1.700519103  -1.696584629  -5.106857394
Ti       5.107522527  -5.103195910  -5.100272324
Ti       3.403168615  -3.401058679  -3.396625051
Nb       1.700301211  -1.697514197  -1.697305734
Nb       5.107744262  -5.102259526  -8.509834374

     NEW-OLD atomic charge density approx. for the potential
     extrapolated charge   66.78578, renormalised to   74.00000

[...]

     enthalpy old            =    -702.3216028657 Ry
     enthalpy new            =    -702.4117472383 Ry

     CASE: enthalpy_new < enthalpy_old

[...]

     Threshold (ethr) on eigenvalues was too large:
     Diagonalizing with lowered threshold

     Davidson diagonalization with overlap
     ethr =  3.18E-08,  avg # of iterations =  2.2

[...]

     small trust_radius: resetting bfgs history

[...]

     number of scf cycles    =  43
     number of bfgs steps    =  42

     enthalpy old            =    -702.4622693053 Ry
     enthalpy new            =    -702.4622693089 Ry

     CASE: enthalpy_new < enthalpy_old

     WARNING: bfgs curvature condition failed, Theta= 0.907
     Message from routine bfgs:
     history already reset at previous step: stopping
     small trust_radius: resetting bfgs history

     new trust radius        =       0.0000301607 bohr
     new conv_thr            =            2.0E-12 Ry

     new unit-cell volume =    708.33674 a.u.^3 (   104.96467 Ang^3 )
     density =      5.96857 g/cm^3

[...]

ATOMIC_POSITIONS (angstrom)
Ti       3.058661923  -3.383611737  -6.854347568
Ti       1.608239312  -1.669454739  -5.045663705
Ti       4.729736388  -4.825058612  -4.975754871
Ti       3.279341059  -3.110859604  -3.167116948
Nb       1.613304137  -1.536149241  -1.612993107
Nb       4.724660269  -4.958359138  -8.408438081

     NEW-OLD atomic charge density approx. for the potential
     extrapolated charge   73.99997, renormalised to   74.00000

[...]

     Threshold (ethr) on eigenvalues was too large:
     Diagonalizing with lowered threshold

     Davidson diagonalization with overlap
     ethr =  3.10E-12,  avg # of iterations =  4.1

[...]

     bfgs converged in  44 scf cycles and  43 bfgs steps
     (criteria: energy <  1.0E-10 Ry, force <  1.0E-05Ry/Bohr, cell <  1.0E-03kbar)

     End of BFGS Geometry Optimization

     Final enthalpy =    -702.4622693119 Ry
Begin final coordinates
     new unit-cell volume =    708.33674 a.u.^3 (   104.96467 Ang^3 )
     density =      5.96857 g/cm^3

CELL_PARAMETERS (alat=  1.88972599)
  -1.629108309  -1.631432724  -1.695578236
   1.574594559   1.609694214  -5.008482288
   4.801185304  -4.851852072  -1.650025611

ATOMIC_POSITIONS (angstrom)
Ti       3.058661923  -3.383611737  -6.854347568
Ti       1.608239312  -1.669454739  -5.045663705
Ti       4.729736388  -4.825058612  -4.975754871
Ti       3.279341059  -3.110859604  -3.167116948
Nb       1.613304137  -1.536149241  -1.612993107
Nb       4.724660269  -4.958359138  -8.408438081
End final coordinates

     A final scf calculation at the relaxed structure.
     The G-vectors are recalculated for the final unit cell
     Results may differ from those at the preceding step.

     bravais-lattice index     =            0
     lattice parameter (alat)  =       1.8897  a.u.
     unit-cell volume          =     708.3367 (a.u.)^3
     number of atoms/cell      =            6
     number of atomic types    =            2
     number of electrons       =        74.00
     number of Kohn-Sham states=           44
     kinetic-energy cutoff     =      50.0000  Ry
     charge density cutoff     =     500.0000  Ry
     convergence threshold     =      2.0E-12
     mixing beta               =       0.6000
     number of iterations used =            8  plain     mixing
     Exchange-correlation      = SLA PW PBE PBE ( 1  4  3  4 0 0)

     celldm(1)=   1.889726  celldm(2)=   0.000000  celldm(3)=   0.000000
     celldm(4)=   0.000000  celldm(5)=   0.000000  celldm(6)=   0.000000

     crystal axes: (cart. coord. in units of alat)
               a(1) = (  -1.629108  -1.631433  -1.695578 )
               a(2) = (   1.574595   1.609694  -5.008482 )
               a(3) = (   4.801185  -4.851852  -1.650026 )

     reciprocal axes: (cart. coord. in units 2 pi/alat)
               b(1) = ( -0.256814 -0.204340 -0.146412 )
               b(2) = (  0.052730  0.103167 -0.149927 )
               b(3) = (  0.103848 -0.103170 -0.000510 )

     PseudoPot. # 1 for Nb read from file:
     ./Nb.pbe-nsp-van.UPF
     MD5 check sum: 0a22fc7fb0ba19a08ca5db297a5d2854
     Pseudo is Ultrasoft + core correction, Zval = 13.0
     Generated by new atomic code, or converted to UPF format
     Using radial grid of  887 points,  6 beta functions with:
                l(1) =   0
                l(2) =   0
                l(3) =   1
                l(4) =   1
                l(5) =   2
                l(6) =   2
     Q(r) pseudized with  6 coefficients,  rinner =    1.000   1.000   1.000
                                                       1.000   1.000

     PseudoPot. # 2 for Ti read from file:
     ./Ti.pbe-sp-van_ak.UPF
     MD5 check sum: f98fea3e8887528921fefa5636a534ca
     Pseudo is Ultrasoft, Zval = 12.0
     Generated by new atomic code, or converted to UPF format
     Using radial grid of  851 points,  6 beta functions with:
                l(1) =   0
                l(2) =   0
                l(3) =   1
                l(4) =   1
                l(5) =   2
                l(6) =   2
     Q(r) pseudized with  8 coefficients,  rinner =    1.000   1.000   1.000
                                                       1.000   1.000

     atomic species   valence    mass     pseudopotential
        Nb            13.00    92.90638     Nb( 1.00)
        Ti            12.00    47.86700     Ti( 1.00)

     No symmetry found
          (note:  1 additional sym.ops. were found but ignored
           their fractional translations are incommensurate with FFT grid)

   Cartesian axes

     site n.     atom                  positions (alat units)
         1           Ti  tau(   1) = (   3.0586622  -3.3836120  -6.8543481  )
         2           Ti  tau(   2) = (   1.6082394  -1.6694549  -5.0456641  )
         3           Ti  tau(   3) = (   4.7297367  -4.8250590  -4.9757553  )
         4           Ti  tau(   4) = (   3.2793413  -3.1108598  -3.1671172  )
         5           Nb  tau(   5) = (   1.6133043  -1.5361494  -1.6129932  )
         6           Nb  tau(   6) = (   4.7246606  -4.9583595  -8.4084387  )

     number of k points=   762  Marzari-Vanderbilt smearing, width (Ry)=  0.0200

     Number of k-points >= 100: set verbosity='high' to print them.

     Initial potential from superposition of free atoms

     starting charge   69.99436, renormalised to   74.00000
     Starting wfcs are   66 randomized atomic wfcs

     Self-consistent Calculation

     iteration #  1     ecut=    50.00 Ry     beta= 0.60
     Davidson diagonalization with overlap
     c_bands:  1 eigenvalues not converged
     c_bands:  1 eigenvalues not converged
     c_bands:  2 eigenvalues not converged
     c_bands:  1 eigenvalues not converged
     c_bands:  1 eigenvalues not converged
     c_bands:  1 eigenvalues not converged
     c_bands:  1 eigenvalues not converged
     c_bands:  1 eigenvalues not converged
     c_bands:  1 eigenvalues not converged
     c_bands:  1 eigenvalues not converged
     c_bands:  1 eigenvalues not converged
     c_bands:  1 eigenvalues not converged
     c_bands:  1 eigenvalues not converged
     c_bands:  1 eigenvalues not converged
     c_bands:  1 eigenvalues not converged
     c_bands:  1 eigenvalues not converged
     c_bands:  2 eigenvalues not converged
     c_bands:  2 eigenvalues not converged
     c_bands:  2 eigenvalues not converged
     c_bands:  2 eigenvalues not converged
     c_bands:  2 eigenvalues not converged
     c_bands:  1 eigenvalues not converged
     c_bands:  1 eigenvalues not converged
     c_bands:  2 eigenvalues not converged
     c_bands:  1 eigenvalues not converged
     c_bands:  1 eigenvalues not converged
     c_bands:  1 eigenvalues not converged
     c_bands:  2 eigenvalues not converged
     c_bands:  1 eigenvalues not converged
     c_bands:  1 eigenvalues not converged
     c_bands:  1 eigenvalues not converged
     c_bands:  1 eigenvalues not converged
     c_bands:  1 eigenvalues not converged
     c_bands:  2 eigenvalues not converged
     c_bands:  1 eigenvalues not converged
     c_bands:  1 eigenvalues not converged
     c_bands:  1 eigenvalues not converged
     c_bands:  1 eigenvalues not converged
     c_bands:  1 eigenvalues not converged
     c_bands:  1 eigenvalues not converged
     c_bands:  1 eigenvalues not converged
     c_bands:  2 eigenvalues not converged
     c_bands:  2 eigenvalues not converged
     c_bands:  2 eigenvalues not converged
     c_bands:  1 eigenvalues not converged
     c_bands:  1 eigenvalues not converged
     c_bands:  1 eigenvalues not converged
     c_bands:  1 eigenvalues not converged
     c_bands:  1 eigenvalues not converged
     c_bands:  2 eigenvalues not converged
     c_bands:  1 eigenvalues not converged
     c_bands:  2 eigenvalues not converged
     c_bands:  1 eigenvalues not converged
     c_bands:  1 eigenvalues not converged
     c_bands:  1 eigenvalues not converged
     c_bands:  1 eigenvalues not converged
     c_bands:  2 eigenvalues not converged
     c_bands:  2 eigenvalues not converged
     c_bands:  2 eigenvalues not converged
     c_bands:  2 eigenvalues not converged
[...]
     c_bands:  2 eigenvalues not converged
     c_bands:  1 eigenvalues not converged
     c_bands:  3 eigenvalues not converged
     c_bands:  2 eigenvalues not converged
     c_bands:  3 eigenvalues not converged
     c_bands:  2 eigenvalues not converged
     c_bands:  1 eigenvalues not converged
     c_bands:  2 eigenvalues not converged
     c_bands:  2 eigenvalues not converged
     c_bands:  1 eigenvalues not converged
     c_bands:  2 eigenvalues not converged
     c_bands:  1 eigenvalues not converged
     c_bands:  1 eigenvalues not converged
     c_bands:  1 eigenvalues not converged
     c_bands:  1 eigenvalues not converged
     ethr =  1.00E-06,  avg # of iterations = 19.1

[...]

     total energy              =    -702.46162071 Ry
     Harris-Foulkes estimate   =    -702.46162071 Ry
     estimated scf accuracy    <          2.0E-12 Ry

     iteration # 34     ecut=    50.00 Ry     beta= 0.60
     Davidson diagonalization with overlap
     ethr =  1.00E-13,  avg # of iterations =  1.0

     End of self-consistent calculation

     Number of k-points >= 100: set verbosity='high' to print the bands.

     the Fermi energy is    14.8632 ev

!    total energy              =    -702.46162071 Ry
     Harris-Foulkes estimate   =    -702.46162071 Ry
     estimated scf accuracy    <          9.6E-13 Ry

     The total energy is the sum of the following terms:

     one-electron contribution =    -198.24980456 Ry
     hartree contribution      =     127.92523262 Ry
     xc contribution           =     -95.03939292 Ry
     ewald contribution        =    -537.09826103 Ry
     smearing contrib. (-TS)   =       0.00060518 Ry

     convergence has been achieved in  34 iterations

     Forces acting on atoms (cartesian axes, Ry/au):

     atom    1 type  2   force =    -0.00000652    0.00000625    0.00000820
     atom    2 type  2   force =     0.00001666   -0.00003397   -0.00002372
     atom    3 type  2   force =    -0.00003518    0.00001324    0.00003353
     atom    4 type  2   force =     0.00002794    0.00001374   -0.00000500
     atom    5 type  1   force =    -0.00000870   -0.00000089   -0.00000673
     atom    6 type  1   force =     0.00000580    0.00000163   -0.00000629

     Total force =     0.000077     Total SCF correction =     0.000002

     Computing stress (Cartesian axis) and pressure

          total   stress  (Ry/bohr**3)                   (kbar)     P=   -0.48
  -0.00000262  -0.00000015  -0.00000041         -0.39     -0.02     -0.06
  -0.00000015  -0.00000268  -0.00000040         -0.02     -0.39     -0.06
  -0.00000041  -0.00000040  -0.00000439         -0.06     -0.06     -0.65

     General routines

     Parallel routines

   This run was terminated on:  22:25:33  11Feb2020

   JOB DONE.