     Program PWSCF v.6.0 (svn rev. 13079) starts on  8May2018 at 10:23:36

     Current dimensions of program PWSCF are:
     Max number of different atomic species (ntypx) = 10
     Max number of k-points (npk) =  40000
     Max angular momentum in pseudopotentials (lmaxx) =  3

     Subspace diagonalization in iterative solution of the eigenvalue problem:
     a serial algorithm will be used

     bravais-lattice index     =            0
     lattice parameter (alat)  =       1.8897  a.u.
     unit-cell volume          =     808.3427 (a.u.)^3
     number of atoms/cell      =            6
     number of atomic types    =            2
     number of electrons       =        75.00
     number of Kohn-Sham states=           46
     kinetic-energy cutoff     =      40.0000  Ry
     charge density cutoff     =     400.0000  Ry
     convergence threshold     =      1.0E-10
     mixing beta               =       0.6000
     number of iterations used =            8  plain     mixing
     Exchange-correlation      = SLA  PW   PBE  PBE ( 1  4  3  4 0 0)
     nstep                     =           50

     celldm(1)=   1.889726  celldm(2)=   0.000000  celldm(3)=   0.000000
     celldm(4)=   0.000000  celldm(5)=   0.000000  celldm(6)=   0.000000

     crystal axes: (cart. coord. in units of alat)
               a(1) = (   6.090008   5.274102   0.000000 )
               a(2) = (  -7.612510  -2.637051   0.000000 )
               a(3) = (   0.000000   0.000000   4.972461 )

     reciprocal axes: (cart. coord. in units 2 pi/alat)
               b(1) = ( -0.109469  0.316010  0.000000 )
               b(2) = ( -0.218938  0.252808  0.000000 )
               b(3) = (  0.000000 -0.000000  0.201108 )

     PseudoPot. # 1 for Nb read from file:
     ./Nb.pbe-nsp-van.UPF
     MD5 check sum: 0a22fc7fb0ba19a08ca5db297a5d2854
     Pseudo is Ultrasoft + core correction, Zval = 13.0
     Generated by new atomic code, or converted to UPF format
     Using radial grid of  887 points,  6 beta functions with:
                l(1) =   0
                l(2) =   0
                l(3) =   1
                l(4) =   1
                l(5) =   2
                l(6) =   2
     Q(r) pseudized with  6 coefficients,  rinner =    1.000   1.000   1.000
                                                       1.000   1.000

     PseudoPot. # 2 for Ti read from file:
     ./Ti.pbe-sp-van_ak.UPF
     MD5 check sum: f98fea3e8887528921fefa5636a534ca
     Pseudo is Ultrasoft, Zval = 12.0
     Generated by new atomic code, or converted to UPF format
     Using radial grid of  851 points,  6 beta functions with:
                l(1) =   0
                l(2) =   0
                l(3) =   1
                l(4) =   1
                l(5) =   2
                l(6) =   2
     Q(r) pseudized with  8 coefficients,  rinner =    1.000   1.000   1.000
                                                       1.000   1.000

     atomic species   valence    mass     pseudopotential
        Nb            13.00    92.90638     Nb( 1.00)
        Ti            12.00    47.86700     Ti( 1.00)

      4 Sym. Ops. (no inversion) found

   Cartesian axes

     site n.     atom                  positions (alat units)
         1           Ti  tau(   1) = (  -1.5225021   2.6370512   4.9724614  )
         2           Ti  tau(   2) = (  -1.5225006   0.8790162   2.4862307  )
         3           Nb  tau(   3) = (   1.5225021   2.6370512   4.9724614  )
         4           Ti  tau(   4) = (  -6.0900069  -1.7580350   2.4862307  )
         5           Nb  tau(   5) = (  -3.0450042   0.0000000   4.9724614  )
         6           Nb  tau(   6) = (   3.0450058   3.5160674   2.4862307  )

     number of k points=   248  Marzari-Vanderbilt smearing, width (Ry)=  0.0200

     Number of k-points >= 100: set verbosity='high' to print them.

     Initial potential from superposition of free atoms

     starting charge   71.99167, renormalised to   75.00000
     Starting wfc are   69 randomized atomic wfcs

     Self-consistent Calculation

     iteration #  1     ecut=    40.00 Ry     beta=0.60
     Davidson diagonalization with overlap
     ethr =  1.00E-02,  avg # of iterations =  4.6

     total energy              =    -630.85647909 Ry
     Harris-Foulkes estimate   =    -712.84541554 Ry
     estimated scf accuracy    <     100.54012882 Ry

[...]

     End of self-consistent calculation

     Number of k-points >= 100: set verbosity='high' to print the bands.

     the Fermi energy is    13.8242 ev

!    total energy              =    -703.64110033 Ry
     Harris-Foulkes estimate   =    -703.64110033 Ry
     estimated scf accuracy    <          7.5E-11 Ry

     The total energy is the sum of the following terms:

     one-electron contribution =    -205.08607019 Ry
     hartree contribution      =     127.92198784 Ry
     xc contribution           =     -98.25445942 Ry
     ewald contribution        =    -528.21752171 Ry
     smearing contrib. (-TS)   =      -0.00503685 Ry

     convergence has been achieved in  41 iterations

     Forces acting on atoms (Ry/au):

     atom    1 type  2   force =    -0.00261843   -0.00151175    0.00000000
     atom    2 type  2   force =     0.00188701    0.00108947    0.00000000
     atom    3 type  1   force =    -0.00264926   -0.00152955    0.00000000
     atom    4 type  2   force =    -0.00046362   -0.00026767    0.00000000
     atom    5 type  1   force =     0.00557487    0.00321865    0.00000000
     atom    6 type  1   force =    -0.00173057   -0.00099915    0.00000000

     Total force =     0.008305     Total SCF correction =     0.000017

     entering subroutine stress ...

          total   stress  (Ry/bohr**3)                   (kbar)     P= -122.66
  -0.00086115   0.00002950   0.00000000       -126.68      4.34      0.00
   0.00002950  -0.00089521   0.00000000          4.34   -131.69      0.00
   0.00000000   0.00000000  -0.00074511          0.00      0.00   -109.61

     BFGS Geometry Optimization

     number of scf cycles    =   1
     number of bfgs steps    =   0

     enthalpy new            =    -703.6411003273 Ry

     new trust radius        =       0.1273292456 bohr
     new conv_thr            =            1.0E-10 Ry

     new unit-cell volume =    758.83461 a.u.^3 (   112.44769 Ang^3 )

CELL_PARAMETERS (alat=  1.88972599)
   5.962786959   5.160557197   0.000000000
  -7.450566788  -2.583646756   0.000000000
   0.000000000   0.000000000   4.879835446

ATOMIC_POSITIONS (angstrom)
Ti      -1.489136205   2.576127338   4.879835446
Ti      -1.488097253   0.858785164   2.439917723
Nb       1.490296700   2.578363557   4.879835446
Ti      -5.960432818  -1.723319163   2.439917723
Nb      -2.976561034  -0.000578144   4.879835446
Nb       2.981146717   3.439104559   2.439917723

     NEW-OLD atomic charge density approx. for the potential

     Check: negative/imaginary core charge=   -0.000001    0.000000
     extrapolated charge   70.30310, renormalised to   75.00000

[...]

     iteration #  1     ecut=    40.00 Ry     beta=0.60
     Davidson diagonalization with overlap
     c_bands:  1 eigenvalues not converged
     c_bands:  1 eigenvalues not converged
     c_bands:  2 eigenvalues not converged
     c_bands:  1 eigenvalues not converged
     c_bands:  1 eigenvalues not converged
     c_bands:  1 eigenvalues not converged
     c_bands:  1 eigenvalues not converged
     c_bands:  1 eigenvalues not converged
     c_bands:  1 eigenvalues not converged
     c_bands:  1 eigenvalues not converged
     c_bands:  1 eigenvalues not converged
     c_bands:  1 eigenvalues not converged
     c_bands:  1 eigenvalues not converged
     c_bands:  1 eigenvalues not converged
     c_bands:  1 eigenvalues not converged
     c_bands:  1 eigenvalues not converged
     c_bands:  1 eigenvalues not converged
     c_bands:  1 eigenvalues not converged
     c_bands:  1 eigenvalues not converged
     c_bands:  1 eigenvalues not converged
     c_bands:  1 eigenvalues not converged
     c_bands:  1 eigenvalues not converged
     c_bands:  1 eigenvalues not converged
     c_bands:  2 eigenvalues not converged
     c_bands:  2 eigenvalues not converged
     c_bands:  1 eigenvalues not converged
     c_bands:  1 eigenvalues not converged
     c_bands:  1 eigenvalues not converged
     c_bands:  1 eigenvalues not converged
     c_bands:  2 eigenvalues not converged
     c_bands:  1 eigenvalues not converged
     c_bands:  1 eigenvalues not converged
     c_bands:  1 eigenvalues not converged
     c_bands:  2 eigenvalues not converged
     c_bands:  1 eigenvalues not converged
     c_bands:  1 eigenvalues not converged
     c_bands:  1 eigenvalues not converged
     c_bands:  1 eigenvalues not converged
     c_bands:  2 eigenvalues not converged
     c_bands:  1 eigenvalues not converged
     c_bands:  1 eigenvalues not converged
     c_bands:  1 eigenvalues not converged
     c_bands:  1 eigenvalues not converged
     c_bands:  1 eigenvalues not converged
     c_bands:  1 eigenvalues not converged
     c_bands:  1 eigenvalues not converged
     c_bands:  1 eigenvalues not converged
     c_bands:  1 eigenvalues not converged
     c_bands:  1 eigenvalues not converged
     c_bands:  1 eigenvalues not converged
     c_bands:  1 eigenvalues not converged
     c_bands:  2 eigenvalues not converged
     c_bands:  1 eigenvalues not converged
     c_bands:  1 eigenvalues not converged
     c_bands:  1 eigenvalues not converged
     c_bands:  1 eigenvalues not converged
     c_bands:  1 eigenvalues not converged
     c_bands:  1 eigenvalues not converged
     c_bands:  1 eigenvalues not converged
     c_bands:  1 eigenvalues not converged
     c_bands:  3 eigenvalues not converged
     c_bands:  3 eigenvalues not converged
     c_bands:  1 eigenvalues not converged
     c_bands:  1 eigenvalues not converged
     c_bands:  1 eigenvalues not converged
     c_bands:  1 eigenvalues not converged
     c_bands:  1 eigenvalues not converged
     c_bands:  1 eigenvalues not converged
     c_bands:  3 eigenvalues not converged
     c_bands:  2 eigenvalues not converged
     c_bands:  2 eigenvalues not converged
     c_bands:  2 eigenvalues not converged
     c_bands:  2 eigenvalues not converged
     c_bands:  1 eigenvalues not converged
     c_bands:  1 eigenvalues not converged
     ethr =  1.00E-06,  avg # of iterations = 16.5

[...]

     enthalpy old            =    -703.6411003273 Ry
     enthalpy new            =    -703.6720419931 Ry

     CASE: enthalpy_new < enthalpy_old

[...]

     NEW-OLD atomic charge density approx. for the potential

     Check: negative/imaginary core charge=   -0.000001    0.000000
     extrapolated charge   75.08507, renormalised to   75.00000

[...]

     NEW-OLD atomic charge density approx. for the potential
     extrapolated charge   75.03323, renormalised to   75.00000

[...]

     WARNING: bfgs curvature condition failed, Theta= 0.881
     new trust radius        =       0.0200778000 bohr
     new conv_thr            =            1.0E-10 Ry

[...]

     Threshold (ethr) on eigenvalues was too large:
     Diagonalizing with lowered threshold

     Davidson diagonalization with overlap
     ethr =  2.22E-08,  avg # of iterations =  1.4

[...]

     Total force =     0.000070     Total SCF correction =     0.000011
     SCF correction compared to forces is large: reduce conv_thr to get better values

[...]

     Total force =     0.000053     Total SCF correction =     0.000007
     SCF correction compared to forces is large: reduce conv_thr to get better values

[...]

     small trust_radius: resetting bfgs history

[...]

     number of scf cycles    =  30
     number of bfgs steps    =  29

     enthalpy old            =    -703.7060574623 Ry
     enthalpy new            =    -703.7060574655 Ry

     CASE: enthalpy_new < enthalpy_old

     Message from routine bfgs:
     history already reset at previous step: stopping
     small trust_radius: resetting bfgs history

     new trust radius        =       0.0000299587 bohr
     new conv_thr            =            2.6E-12 Ry

     new unit-cell volume =    719.41492 a.u.^3 (   106.60629 Ang^3 )

[...]

ATOMIC_POSITIONS (angstrom)
Ti      -1.235197608   2.471406248   4.749242722
Ti      -1.561637428   0.690660554   2.374621361
Nb       1.759742257   2.608261712   4.749242722
Ti      -6.367982136  -2.084284029   2.374621361
Nb      -2.826516449  -0.039616166   4.749242722
Nb       3.055696020   3.356479441   2.374621361

     NEW-OLD atomic charge density approx. for the potential
     extrapolated charge   74.99981, renormalised to   75.00000

[...]

     Threshold (ethr) on eigenvalues was too large:
     Diagonalizing with lowered threshold

     Davidson diagonalization with overlap
     ethr =  3.42E-12,  avg # of iterations =  3.5

[...]

     bfgs converged in  31 scf cycles and  30 bfgs steps
     (criteria: energy <  1.0E-10, force <  1.0E-05, cell <  1.0E-03)

     End of BFGS Geometry Optimization

     Final enthalpy =    -703.7060574675 Ry
Begin final coordinates
     new unit-cell volume =    719.41492 a.u.^3 (   106.60629 Ang^3 )

CELL_PARAMETERS (alat=  1.88972599)
   6.359253512   5.263790952   0.000000000
  -7.738203129  -2.875379961   0.000000000
   0.000000000   0.000000000   4.749242722

ATOMIC_POSITIONS (angstrom)
Ti      -1.235197608   2.471406248   4.749242722
Ti      -1.561637428   0.690660554   2.374621361
Nb       1.759742257   2.608261712   4.749242722
Ti      -6.367982136  -2.084284029   2.374621361
Nb      -2.826516449  -0.039616166   4.749242722
Nb       3.055696020   3.356479441   2.374621361
End final coordinates

     A final scf calculation at the relaxed structure.
     The G-vectors are recalculated for the final unit cell
     Results may differ from those at the preceding step.

   Info: using nr1, nr2, nr3 values from input

   Info: using nr1, nr2, nr3 values from input

     bravais-lattice index     =            0
     lattice parameter (alat)  =       1.8897  a.u.
     unit-cell volume          =     719.4149 (a.u.)^3
     number of atoms/cell      =            6
     number of atomic types    =            2
     number of electrons       =        75.00
     number of Kohn-Sham states=           46
     kinetic-energy cutoff     =      40.0000  Ry
     charge density cutoff     =     400.0000  Ry
     convergence threshold     =      2.6E-12
     mixing beta               =       0.6000
     number of iterations used =            8  plain     mixing
     Exchange-correlation      = SLA  PW   PBE  PBE ( 1  4  3  4 0 0)

     celldm(1)=   1.889726  celldm(2)=   0.000000  celldm(3)=   0.000000
     celldm(4)=   0.000000  celldm(5)=   0.000000  celldm(6)=   0.000000

     crystal axes: (cart. coord. in units of alat)
               a(1) = (   6.359254   5.263791   0.000000 )
               a(2) = (  -7.738203  -2.875380   0.000000 )
               a(3) = (   0.000000   0.000000   4.749243 )

     reciprocal axes: (cart. coord. in units 2 pi/alat)
               b(1) = ( -0.128096  0.344732  0.000000 )
               b(2) = ( -0.234498  0.283301  0.000000 )
               b(3) = (  0.000000 -0.000000  0.210560 )

     PseudoPot. # 1 for Nb read from file:
     ./Nb.pbe-nsp-van.UPF
     MD5 check sum: 0a22fc7fb0ba19a08ca5db297a5d2854
     Pseudo is Ultrasoft + core correction, Zval = 13.0
     Generated by new atomic code, or converted to UPF format
     Using radial grid of  887 points,  6 beta functions with:
                l(1) =   0
                l(2) =   0
                l(3) =   1
                l(4) =   1
                l(5) =   2
                l(6) =   2
     Q(r) pseudized with  6 coefficients,  rinner =    1.000   1.000   1.000
                                                       1.000   1.000

     PseudoPot. # 2 for Ti read from file:
     ./Ti.pbe-sp-van_ak.UPF
     MD5 check sum: f98fea3e8887528921fefa5636a534ca
     Pseudo is Ultrasoft, Zval = 12.0
     Generated by new atomic code, or converted to UPF format
     Using radial grid of  851 points,  6 beta functions with:
                l(1) =   0
                l(2) =   0
                l(3) =   1
                l(4) =   1
                l(5) =   2
                l(6) =   2
     Q(r) pseudized with  8 coefficients,  rinner =    1.000   1.000   1.000
                                                       1.000   1.000

     atomic species   valence    mass     pseudopotential
        Nb            13.00    92.90638     Nb( 1.00)
        Ti            12.00    47.86700     Ti( 1.00)

      4 Sym. Ops. (no inversion) found

   Cartesian axes

     site n.     atom                  positions (alat units)
         1           Ti  tau(   1) = (  -1.2351977   2.4714064   4.7492431  )
         2           Ti  tau(   2) = (  -1.5616375   0.6906606   2.3746215  )
         3           Nb  tau(   3) = (   1.7597424   2.6082619   4.7492431  )
         4           Ti  tau(   4) = (  -6.3679826  -2.0842842   2.3746215  )
         5           Nb  tau(   5) = (  -2.8265167  -0.0396162   4.7492431  )
         6           Nb  tau(   6) = (   3.0556963   3.3564797   2.3746215  )

     number of k points=   248  Marzari-Vanderbilt smearing, width (Ry)=  0.0200

     Number of k-points >= 100: set verbosity='high' to print them.

     Initial potential from superposition of free atoms

     starting charge   71.99167, renormalised to   75.00000
     Starting wfc are   69 randomized atomic wfcs

     Self-consistent Calculation

[...]

     iteration # 28     ecut=    40.00 Ry     beta=0.60
     Davidson diagonalization with overlap
     c_bands:  1 eigenvalues not converged
     ethr =  3.33E-06,  avg # of iterations =  6.4

[...]

     total energy              =    -703.70289319 Ry
     Harris-Foulkes estimate   =    -703.70289319 Ry
     estimated scf accuracy    <          3.4E-11 Ry

     iteration # 41     ecut=    40.00 Ry     beta=0.60
     Davidson diagonalization with overlap
     ethr =  1.00E-13,  avg # of iterations =  1.0

     End of self-consistent calculation

     Number of k-points >= 100: set verbosity='high' to print the bands.

     the Fermi energy is    15.6966 ev

!    total energy              =    -703.70289319 Ry
     Harris-Foulkes estimate   =    -703.70289319 Ry
     estimated scf accuracy    <          1.6E-12 Ry

     The total energy is the sum of the following terms:

     one-electron contribution =    -174.90657206 Ry
     hartree contribution      =     118.98440189 Ry
     xc contribution           =     -98.88098022 Ry
     ewald contribution        =    -548.89871411 Ry
     smearing contrib. (-TS)   =      -0.00102869 Ry

     convergence has been achieved in  41 iterations

     Forces acting on atoms (Ry/au):

     atom    1 type  2   force =     0.00001061    0.00000612    0.00000000
     atom    2 type  2   force =    -0.00008742   -0.00005047    0.00000000
     atom    3 type  1   force =     0.00002867    0.00001655    0.00000000
     atom    4 type  2   force =     0.00004521    0.00002610    0.00000000
     atom    5 type  1   force =    -0.00000806   -0.00000465    0.00000000
     atom    6 type  1   force =     0.00001099    0.00000634    0.00000000

     Total force =     0.000120     Total SCF correction =     0.000005

     entering subroutine stress ...

          total   stress  (Ry/bohr**3)                   (kbar)     P=   -2.68
  -0.00000894   0.00001319   0.00000000         -1.32      1.94      0.00
   0.00001319  -0.00002417   0.00000000          1.94     -3.56      0.00
   0.00000000   0.00000000  -0.00002158          0.00      0.00     -3.17

     General routines

     Parallel routines

   This run was terminated on:   6: 6:39   9May2018

   JOB DONE.