     Program PWSCF v.6.3MaX starts on 27Feb2020 at  9:35:44

     R & G space division:  proc/nbgrp/npool/nimage =       4
     Waiting for input...
     Reading input from standard input

     Current dimensions of program PWSCF are:
     Max number of different atomic species (ntypx) = 10
     Max number of k-points (npk) =  40000
     Max angular momentum in pseudopotentials (lmaxx) =  3
     Message from routine iosys:
     minimal I/O required, wf_collect reset to FALSE

     Subspace diagonalization in iterative solution of the eigenvalue problem:
     a serial algorithm will be used

     bravais-lattice index     =            0
     lattice parameter (alat)  =       1.8897  a.u.
     unit-cell volume          =    1077.7903 (a.u.)^3
     number of atoms/cell      =            8
     number of atomic types    =            2
     number of electrons       =       103.00
     number of Kohn-Sham states=           62
     kinetic-energy cutoff     =      40.0000  Ry
     charge density cutoff     =     400.0000  Ry
     convergence threshold     =      1.0E-10
     mixing beta               =       0.6000
     number of iterations used =            8  plain     mixing
     Exchange-correlation      = SLA PW PBE PBE ( 1  4  3  4 0 0)
     nstep                     =           50

     celldm(1)=   1.889726  celldm(2)=   0.000000  celldm(3)=   0.000000
     celldm(4)=   0.000000  celldm(5)=   0.000000  celldm(6)=   0.000000

     crystal axes: (cart. coord. in units of alat)
               a(1) = (   3.045004  -5.274102   0.000000 )
               a(2) = (  -6.090008   0.000000   0.000000 )
               a(3) = (   0.000000   0.000000  -4.972461 )

     reciprocal axes: (cart. coord. in units 2 pi/alat)
               b(1) = (  0.000000 -0.189606  0.000000 )
               b(2) = ( -0.164203 -0.094803  0.000000 )
               b(3) = (  0.000000  0.000000 -0.201108 )

     PseudoPot. # 1 for Nb read from file:
     ./Nb.pbe-nsp-van.UPF
     MD5 check sum: 0a22fc7fb0ba19a08ca5db297a5d2854
     Pseudo is Ultrasoft + core correction, Zval = 13.0
     Generated by new atomic code, or converted to UPF format
     Using radial grid of  887 points,  6 beta functions with:
                l(1) =   0
                l(2) =   0
                l(3) =   1
                l(4) =   1
                l(5) =   2
                l(6) =   2
     Q(r) pseudized with  6 coefficients,  rinner =    1.000   1.000   1.000
                                                       1.000   1.000

     PseudoPot. # 2 for Ti read from file:
     ./Ti.pbe-sp-van_ak.UPF
     MD5 check sum: f98fea3e8887528921fefa5636a534ca
     Pseudo is Ultrasoft, Zval = 12.0
     Generated by new atomic code, or converted to UPF format
     Using radial grid of  851 points,  6 beta functions with:
                l(1) =   0
                l(2) =   0
                l(3) =   1
                l(4) =   1
                l(5) =   2
                l(6) =   2
     Q(r) pseudized with  8 coefficients,  rinner =    1.000   1.000   1.000
                                                       1.000   1.000

     atomic species   valence    mass     pseudopotential
        Nb            13.00    92.90638     Nb( 1.00)
        Ti            12.00    47.86700     Ti( 1.00)

     12 Sym. Ops. (no inversion) found

   Cartesian axes

     site n.     atom                  positions (alat units)
         1           Ti  tau(   1) = (  -3.0450042  -5.2741024  -4.9724614  )
         2           Nb  tau(   2) = (   0.0000015  -1.7580350  -2.4862307  )
         3           Nb  tau(   3) = (   0.0000000  -5.2741024  -4.9724614  )
         4           Nb  tau(   4) = (  -3.0450027  -1.7580350  -2.4862307  )
         5           Nb  tau(   5) = (  -4.5675063  -2.6370512  -4.9724614  )
         6           Nb  tau(   6) = (   1.5225036  -4.3950862  -2.4862307  )
         7           Nb  tau(   7) = (  -1.5225021  -2.6370512  -4.9724614  )
         8           Nb  tau(   8) = (  -1.5225006  -4.3950862  -2.4862307  )

     number of k points=    98  Marzari-Vanderbilt smearing, width (Ry)=  0.0200
                       cart. coord. in units 2pi/alat
        k(    1) = (   0.0000000   0.0000000   0.0000000), wk =   0.0016667
        k(    2) = (   0.0000000   0.0000000  -0.0167590), wk =   0.0033333
        k(    3) = (   0.0000000   0.0000000  -0.0335179), wk =   0.0033333
        k(    4) = (   0.0000000   0.0000000  -0.0502769), wk =   0.0033333
        k(    5) = (   0.0000000   0.0000000  -0.0670359), wk =   0.0033333
        k(    6) = (   0.0000000   0.0000000  -0.0837949), wk =   0.0033333
        k(    7) = (   0.0000000   0.0000000   0.1005538), wk =   0.0016667
        k(    8) = (  -0.0164203  -0.0094803   0.0000000), wk =   0.0100000
        k(    9) = (  -0.0164203  -0.0094803  -0.0167590), wk =   0.0200000
        k(   10) = (  -0.0164203  -0.0094803  -0.0335179), wk =   0.0200000
        k(   11) = (  -0.0164203  -0.0094803  -0.0502769), wk =   0.0200000
        k(   12) = (  -0.0164203  -0.0094803  -0.0670359), wk =   0.0200000
        k(   13) = (  -0.0164203  -0.0094803  -0.0837949), wk =   0.0200000
        k(   14) = (  -0.0164203  -0.0094803   0.1005538), wk =   0.0100000
        k(   15) = (  -0.0328407  -0.0189606   0.0000000), wk =   0.0100000
        k(   16) = (  -0.0328407  -0.0189606  -0.0167590), wk =   0.0200000
        k(   17) = (  -0.0328407  -0.0189606  -0.0335179), wk =   0.0200000
        k(   18) = (  -0.0328407  -0.0189606  -0.0502769), wk =   0.0200000
        k(   19) = (  -0.0328407  -0.0189606  -0.0670359), wk =   0.0200000
        k(   20) = (  -0.0328407  -0.0189606  -0.0837949), wk =   0.0200000
        k(   21) = (  -0.0328407  -0.0189606   0.1005538), wk =   0.0100000
        k(   22) = (  -0.0492610  -0.0284409   0.0000000), wk =   0.0100000
        k(   23) = (  -0.0492610  -0.0284409  -0.0167590), wk =   0.0200000
        k(   24) = (  -0.0492610  -0.0284409  -0.0335179), wk =   0.0200000
        k(   25) = (  -0.0492610  -0.0284409  -0.0502769), wk =   0.0200000
        k(   26) = (  -0.0492610  -0.0284409  -0.0670359), wk =   0.0200000
        k(   27) = (  -0.0492610  -0.0284409  -0.0837949), wk =   0.0200000
        k(   28) = (  -0.0492610  -0.0284409   0.1005538), wk =   0.0100000
        k(   29) = (  -0.0656814  -0.0379211   0.0000000), wk =   0.0100000
        k(   30) = (  -0.0656814  -0.0379211  -0.0167590), wk =   0.0200000
        k(   31) = (  -0.0656814  -0.0379211  -0.0335179), wk =   0.0200000
        k(   32) = (  -0.0656814  -0.0379211  -0.0502769), wk =   0.0200000
        k(   33) = (  -0.0656814  -0.0379211  -0.0670359), wk =   0.0200000
        k(   34) = (  -0.0656814  -0.0379211  -0.0837949), wk =   0.0200000
        k(   35) = (  -0.0656814  -0.0379211   0.1005538), wk =   0.0100000
        k(   36) = (   0.0821017   0.0474014   0.0000000), wk =   0.0050000
        k(   37) = (   0.0821017   0.0474014  -0.0167590), wk =   0.0100000
        k(   38) = (   0.0821017   0.0474014  -0.0335179), wk =   0.0100000
        k(   39) = (   0.0821017   0.0474014  -0.0502769), wk =   0.0100000
        k(   40) = (   0.0821017   0.0474014  -0.0670359), wk =   0.0100000
        k(   41) = (   0.0821017   0.0474014  -0.0837949), wk =   0.0100000
        k(   42) = (   0.0821017   0.0474014   0.1005538), wk =   0.0050000
        k(   43) = (  -0.0164203  -0.0284409   0.0000000), wk =   0.0100000
        k(   44) = (  -0.0164203  -0.0284409  -0.0167590), wk =   0.0200000
        k(   45) = (  -0.0164203  -0.0284409  -0.0335179), wk =   0.0200000
        k(   46) = (  -0.0164203  -0.0284409  -0.0502769), wk =   0.0200000
        k(   47) = (  -0.0164203  -0.0284409  -0.0670359), wk =   0.0200000
        k(   48) = (  -0.0164203  -0.0284409  -0.0837949), wk =   0.0200000
        k(   49) = (  -0.0164203  -0.0284409   0.1005538), wk =   0.0100000
        k(   50) = (  -0.0328407  -0.0379211   0.0000000), wk =   0.0200000
        k(   51) = (  -0.0328407  -0.0379211  -0.0167590), wk =   0.0400000
        k(   52) = (  -0.0328407  -0.0379211  -0.0335179), wk =   0.0400000
        k(   53) = (  -0.0328407  -0.0379211  -0.0502769), wk =   0.0400000
        k(   54) = (  -0.0328407  -0.0379211  -0.0670359), wk =   0.0400000
        k(   55) = (  -0.0328407  -0.0379211  -0.0837949), wk =   0.0400000
        k(   56) = (  -0.0328407  -0.0379211   0.1005538), wk =   0.0200000
        k(   57) = (  -0.0492610  -0.0474014   0.0000000), wk =   0.0200000
        k(   58) = (  -0.0492610  -0.0474014  -0.0167590), wk =   0.0400000
        k(   59) = (  -0.0492610  -0.0474014  -0.0335179), wk =   0.0400000
        k(   60) = (  -0.0492610  -0.0474014  -0.0502769), wk =   0.0400000
[...]
        k(   84) = (  -0.0492610  -0.0663620   0.1005538), wk =   0.0200000
        k(   85) = (  -0.0656814  -0.0758423   0.0000000), wk =   0.0100000
        k(   86) = (  -0.0656814  -0.0758423  -0.0167590), wk =   0.0200000
        k(   87) = (  -0.0656814  -0.0758423  -0.0335179), wk =   0.0200000
        k(   88) = (  -0.0656814  -0.0758423  -0.0502769), wk =   0.0200000
        k(   89) = (  -0.0656814  -0.0758423  -0.0670359), wk =   0.0200000
        k(   90) = (  -0.0656814  -0.0758423  -0.0837949), wk =   0.0200000
        k(   91) = (  -0.0656814  -0.0758423   0.1005538), wk =   0.0100000
        k(   92) = (  -0.0492610  -0.0853226   0.0000000), wk =   0.0100000
        k(   93) = (  -0.0492610  -0.0853226  -0.0167590), wk =   0.0200000
        k(   94) = (  -0.0492610  -0.0853226  -0.0335179), wk =   0.0200000
        k(   95) = (  -0.0492610  -0.0853226  -0.0502769), wk =   0.0200000
        k(   96) = (  -0.0492610  -0.0853226  -0.0670359), wk =   0.0200000
        k(   97) = (  -0.0492610  -0.0853226  -0.0837949), wk =   0.0200000
        k(   98) = (  -0.0492610  -0.0853226   0.1005538), wk =   0.0100000

     Check: negative/imaginary core charge=   -0.000001    0.000000

     Initial potential from superposition of free atoms

     starting charge  101.98082, renormalised to  103.00000
     Starting wfcs are  101 randomized atomic wfcs

     Self-consistent Calculation

     iteration #  1     ecut=    40.00 Ry     beta= 0.60
     Davidson diagonalization with overlap
     ethr =  1.00E-02,  avg # of iterations =  2.0

     total energy              =    -918.60286986 Ry
     Harris-Foulkes estimate   =    -944.65911289 Ry
     estimated scf accuracy    <      32.57465032 Ry

[...]

     End of self-consistent calculation

          k = 0.0000 0.0000 0.0000 (  4561 PWs)   bands (ev):

   -41.2692 -39.1788 -39.0564 -39.0564 -39.0511 -39.0088 -38.9980 -38.9980
   -17.5541 -17.5541 -17.5098 -15.6050 -15.5753 -15.5151 -15.5151 -15.4466
   -15.2888 -15.2888 -15.2209 -15.2209 -15.0631 -15.0555 -14.9675 -14.9675
   -14.9075 -14.9075 -14.8493 -14.8493 -14.8396 -14.7353 -14.7353 -14.7231
     9.6197  12.1295  12.4859  12.4901  12.4901  12.6930  12.8128  12.8942
    12.8942  13.0807  13.0807  15.2523  15.2523  15.4439  15.6657  15.6885
    15.7183  15.7183  15.8393  15.9113  15.9113  15.9707  15.9707  16.4140
    16.4140  16.5102  16.5102  16.5256  16.6957  17.2460

[...]

[...]
     c_bands:  1 eigenvalues not converged
     c_bands:  1 eigenvalues not converged
     c_bands:  1 eigenvalues not converged
     c_bands:  1 eigenvalues not converged
     c_bands:  1 eigenvalues not converged
     c_bands:  1 eigenvalues not converged
     c_bands:  1 eigenvalues not converged
     c_bands:  1 eigenvalues not converged
     c_bands:  1 eigenvalues not converged
     c_bands:  1 eigenvalues not converged
     c_bands:  1 eigenvalues not converged
     c_bands:  1 eigenvalues not converged
     c_bands:  1 eigenvalues not converged
     c_bands:  1 eigenvalues not converged
     c_bands:  1 eigenvalues not converged
     c_bands:  1 eigenvalues not converged
     ethr =  1.00E-06,  avg # of iterations = 14.9

[...]

     enthalpy old            =    -941.9691900645 Ry
     enthalpy new            =    -942.0026936059 Ry

     CASE: enthalpy_new < enthalpy_old

[...]

     iteration #  1     ecut=    40.00 Ry     beta= 0.60
     Davidson diagonalization with overlap
     c_bands:  2 eigenvalues not converged
     c_bands:  1 eigenvalues not converged
     c_bands:  1 eigenvalues not converged
     c_bands:  1 eigenvalues not converged
     c_bands:  1 eigenvalues not converged
     ethr =  1.00E-06,  avg # of iterations = 11.6

[...]

     Threshold (ethr) on eigenvalues was too large:
     Diagonalizing with lowered threshold

     Davidson diagonalization with overlap
     ethr =  3.87E-08,  avg # of iterations =  2.2

[...]

     Total force =     0.000049     Total SCF correction =     0.000006
     SCF correction compared to forces is large: reduce conv_thr to get better values

[...]

     small trust_radius: resetting bfgs history

[...]

     number of scf cycles    =  16
     number of bfgs steps    =  15

     enthalpy old            =    -942.0273136177 Ry
     enthalpy new            =    -942.0273136183 Ry

     CASE: enthalpy_new < enthalpy_old

     Message from routine bfgs:
     history already reset at previous step: stopping
     small trust_radius: resetting bfgs history

     new trust radius        =       0.0000056623 bohr
     new conv_thr            =            1.0E-12 Ry

     new unit-cell volume =    993.91368 a.u.^3 (   147.28281 Ang^3 )
     density =      7.87198 g/cm^3

[...]

ATOMIC_POSITIONS (angstrom)
Ti      -2.859353243  -4.952545480  -5.200269884
Nb       0.000001430  -1.643922637  -2.600134942
Nb       0.000000000  -4.946659409  -5.200269884
Nb      -2.859351813  -1.650849319  -2.600134942
Nb      -4.294127352  -2.479215775  -5.200269884
Nb       1.435676735  -4.130585399  -2.600134942
Nb      -1.424579135  -2.479215775  -5.200269884
Nb      -1.435673874  -4.130585399  -2.600134942

     NEW-OLD atomic charge density approx. for the potential

     Check: negative/imaginary core charge=   -0.000001    0.000000
     extrapolated charge  103.00024, renormalised to  103.00000

[...]

     Threshold (ethr) on eigenvalues was too large:
     Diagonalizing with lowered threshold

     Davidson diagonalization with overlap
     ethr =  1.50E-12,  avg # of iterations =  2.8

[...]

     Total force =     0.000005     Total SCF correction =     0.000001
     SCF correction compared to forces is large: reduce conv_thr to get better values

[...]

     bfgs converged in  17 scf cycles and  16 bfgs steps
     (criteria: energy <  1.0E-10 Ry, force <  1.0E-05Ry/Bohr, cell <  1.0E-03kbar)

     End of BFGS Geometry Optimization

     Final enthalpy =    -942.0273136185 Ry
Begin final coordinates
     new unit-cell volume =    993.91368 a.u.^3 (   147.28281 Ang^3 )
     density =      7.87198 g/cm^3

CELL_PARAMETERS (alat=  1.88972599)
   2.859353243  -4.952545480  -0.000000000
  -5.718706487   0.000000000   0.000000000
  -0.000000000  -0.000000000  -5.200269884

ATOMIC_POSITIONS (angstrom)
Ti      -2.859353243  -4.952545480  -5.200269884
Nb       0.000001430  -1.643922637  -2.600134942
Nb       0.000000000  -4.946659409  -5.200269884
Nb      -2.859351813  -1.650849319  -2.600134942
Nb      -4.294127352  -2.479215775  -5.200269884
Nb       1.435676735  -4.130585399  -2.600134942
Nb      -1.424579135  -2.479215775  -5.200269884
Nb      -1.435673874  -4.130585399  -2.600134942
End final coordinates

     A final scf calculation at the relaxed structure.
     The G-vectors are recalculated for the final unit cell
     Results may differ from those at the preceding step.

     bravais-lattice index     =            0
     lattice parameter (alat)  =       1.8897  a.u.
     unit-cell volume          =     993.9137 (a.u.)^3
     number of atoms/cell      =            8
     number of atomic types    =            2
     number of electrons       =       103.00
     number of Kohn-Sham states=           62
     kinetic-energy cutoff     =      40.0000  Ry
     charge density cutoff     =     400.0000  Ry
     convergence threshold     =      1.0E-12
     mixing beta               =       0.6000
     number of iterations used =            8  plain     mixing
     Exchange-correlation      = SLA PW PBE PBE ( 1  4  3  4 0 0)

     celldm(1)=   1.889726  celldm(2)=   0.000000  celldm(3)=   0.000000
     celldm(4)=   0.000000  celldm(5)=   0.000000  celldm(6)=   0.000000

     crystal axes: (cart. coord. in units of alat)
               a(1) = (   2.859353  -4.952545  -0.000000 )
               a(2) = (  -5.718706   0.000000   0.000000 )
               a(3) = (  -0.000000  -0.000000  -5.200270 )

     reciprocal axes: (cart. coord. in units 2 pi/alat)
               b(1) = ( -0.000000 -0.201916  0.000000 )
               b(2) = ( -0.174865 -0.100958  0.000000 )
               b(3) = ( -0.000000 -0.000000 -0.192298 )

     PseudoPot. # 1 for Nb read from file:
     ./Nb.pbe-nsp-van.UPF
     MD5 check sum: 0a22fc7fb0ba19a08ca5db297a5d2854
     Pseudo is Ultrasoft + core correction, Zval = 13.0
     Generated by new atomic code, or converted to UPF format
     Using radial grid of  887 points,  6 beta functions with:
                l(1) =   0
                l(2) =   0
                l(3) =   1
                l(4) =   1
                l(5) =   2
                l(6) =   2
     Q(r) pseudized with  6 coefficients,  rinner =    1.000   1.000   1.000
                                                       1.000   1.000

     PseudoPot. # 2 for Ti read from file:
     ./Ti.pbe-sp-van_ak.UPF
     MD5 check sum: f98fea3e8887528921fefa5636a534ca
     Pseudo is Ultrasoft, Zval = 12.0
     Generated by new atomic code, or converted to UPF format
     Using radial grid of  851 points,  6 beta functions with:
                l(1) =   0
                l(2) =   0
                l(3) =   1
                l(4) =   1
                l(5) =   2
                l(6) =   2
     Q(r) pseudized with  8 coefficients,  rinner =    1.000   1.000   1.000
                                                       1.000   1.000

     atomic species   valence    mass     pseudopotential
        Nb            13.00    92.90638     Nb( 1.00)
        Ti            12.00    47.86700     Ti( 1.00)

     12 Sym. Ops. (no inversion) found

   Cartesian axes

     site n.     atom                  positions (alat units)
         1           Ti  tau(   1) = (  -2.8593535  -4.9525459  -5.2002703  )
         2           Nb  tau(   2) = (   0.0000014  -1.6439228  -2.6001351  )
         3           Nb  tau(   3) = (   0.0000000  -4.9466598  -5.2002703  )
         4           Nb  tau(   4) = (  -2.8593520  -1.6508494  -2.6001351  )
         5           Nb  tau(   5) = (  -4.2941277  -2.4792160  -5.2002703  )
         6           Nb  tau(   6) = (   1.4356768  -4.1305857  -2.6001351  )
         7           Nb  tau(   7) = (  -1.4245792  -2.4792160  -5.2002703  )
         8           Nb  tau(   8) = (  -1.4356740  -4.1305857  -2.6001351  )

     number of k points=    98  Marzari-Vanderbilt smearing, width (Ry)=  0.0200
                       cart. coord. in units 2pi/alat
        k(    1) = (   0.0000000   0.0000000   0.0000000), wk =   0.0016667
        k(    2) = (  -0.0000000  -0.0000000  -0.0160248), wk =   0.0033333
        k(    3) = (  -0.0000000  -0.0000000  -0.0320496), wk =   0.0033333
        k(    4) = (  -0.0000000  -0.0000000  -0.0480744), wk =   0.0033333
        k(    5) = (  -0.0000000  -0.0000000  -0.0640992), wk =   0.0033333
        k(    6) = (  -0.0000000  -0.0000000  -0.0801240), wk =   0.0033333
        k(    7) = (   0.0000000   0.0000000   0.0961489), wk =   0.0016667
        k(    8) = (  -0.0174865  -0.0100958   0.0000000), wk =   0.0100000
        k(    9) = (  -0.0174865  -0.0100958  -0.0160248), wk =   0.0200000
        k(   10) = (  -0.0174865  -0.0100958  -0.0320496), wk =   0.0200000
        k(   11) = (  -0.0174865  -0.0100958  -0.0480744), wk =   0.0200000
        k(   12) = (  -0.0174865  -0.0100958  -0.0640992), wk =   0.0200000
        k(   13) = (  -0.0174865  -0.0100958  -0.0801240), wk =   0.0200000
        k(   14) = (  -0.0174865  -0.0100958   0.0961489), wk =   0.0100000
        k(   15) = (  -0.0349729  -0.0201916   0.0000000), wk =   0.0100000
        k(   16) = (  -0.0349729  -0.0201916  -0.0160248), wk =   0.0200000
        k(   17) = (  -0.0349729  -0.0201916  -0.0320496), wk =   0.0200000
        k(   18) = (  -0.0349729  -0.0201916  -0.0480744), wk =   0.0200000
        k(   19) = (  -0.0349729  -0.0201916  -0.0640992), wk =   0.0200000
        k(   20) = (  -0.0349729  -0.0201916  -0.0801240), wk =   0.0200000
        k(   21) = (  -0.0349729  -0.0201916   0.0961489), wk =   0.0100000
        k(   22) = (  -0.0524594  -0.0302875   0.0000000), wk =   0.0100000
        k(   23) = (  -0.0524594  -0.0302875  -0.0160248), wk =   0.0200000
        k(   24) = (  -0.0524594  -0.0302875  -0.0320496), wk =   0.0200000
        k(   25) = (  -0.0524594  -0.0302875  -0.0480744), wk =   0.0200000
        k(   26) = (  -0.0524594  -0.0302875  -0.0640992), wk =   0.0200000
        k(   27) = (  -0.0524594  -0.0302875  -0.0801240), wk =   0.0200000
        k(   28) = (  -0.0524594  -0.0302875   0.0961489), wk =   0.0100000
        k(   29) = (  -0.0699459  -0.0403833   0.0000000), wk =   0.0100000
        k(   30) = (  -0.0699459  -0.0403833  -0.0160248), wk =   0.0200000
        k(   31) = (  -0.0699459  -0.0403833  -0.0320496), wk =   0.0200000
        k(   32) = (  -0.0699459  -0.0403833  -0.0480744), wk =   0.0200000
        k(   33) = (  -0.0699459  -0.0403833  -0.0640992), wk =   0.0200000
        k(   34) = (  -0.0699459  -0.0403833  -0.0801240), wk =   0.0200000
        k(   35) = (  -0.0699459  -0.0403833   0.0961489), wk =   0.0100000
        k(   36) = (   0.0874324   0.0504791  -0.0000000), wk =   0.0050000
        k(   37) = (   0.0874324   0.0504791  -0.0160248), wk =   0.0100000
        k(   38) = (   0.0874324   0.0504791  -0.0320496), wk =   0.0100000
        k(   39) = (   0.0874324   0.0504791  -0.0480744), wk =   0.0100000
        k(   40) = (   0.0874324   0.0504791  -0.0640992), wk =   0.0100000
        k(   41) = (   0.0874324   0.0504791  -0.0801240), wk =   0.0100000
        k(   42) = (   0.0874324   0.0504791   0.0961489), wk =   0.0050000
        k(   43) = (  -0.0174865  -0.0302875   0.0000000), wk =   0.0100000
        k(   44) = (  -0.0174865  -0.0302875  -0.0160248), wk =   0.0200000
        k(   45) = (  -0.0174865  -0.0302875  -0.0320496), wk =   0.0200000
        k(   46) = (  -0.0174865  -0.0302875  -0.0480744), wk =   0.0200000
        k(   47) = (  -0.0174865  -0.0302875  -0.0640992), wk =   0.0200000
        k(   48) = (  -0.0174865  -0.0302875  -0.0801240), wk =   0.0200000
        k(   49) = (  -0.0174865  -0.0302875   0.0961489), wk =   0.0100000
        k(   50) = (  -0.0349729  -0.0403833   0.0000000), wk =   0.0200000
        k(   51) = (  -0.0349729  -0.0403833  -0.0160248), wk =   0.0400000
        k(   52) = (  -0.0349729  -0.0403833  -0.0320496), wk =   0.0400000
        k(   53) = (  -0.0349729  -0.0403833  -0.0480744), wk =   0.0400000
        k(   54) = (  -0.0349729  -0.0403833  -0.0640992), wk =   0.0400000
        k(   55) = (  -0.0349729  -0.0403833  -0.0801240), wk =   0.0400000
        k(   56) = (  -0.0349729  -0.0403833   0.0961489), wk =   0.0200000
        k(   57) = (  -0.0524594  -0.0504791   0.0000000), wk =   0.0200000
        k(   58) = (  -0.0524594  -0.0504791  -0.0160248), wk =   0.0400000
        k(   59) = (  -0.0524594  -0.0504791  -0.0320496), wk =   0.0400000
        k(   60) = (  -0.0524594  -0.0504791  -0.0480744), wk =   0.0400000
[...]
        k(   84) = (  -0.0524594  -0.0706707   0.0961489), wk =   0.0200000
        k(   85) = (  -0.0699459  -0.0807665   0.0000000), wk =   0.0100000
        k(   86) = (  -0.0699459  -0.0807665  -0.0160248), wk =   0.0200000
        k(   87) = (  -0.0699459  -0.0807665  -0.0320496), wk =   0.0200000
        k(   88) = (  -0.0699459  -0.0807665  -0.0480744), wk =   0.0200000
        k(   89) = (  -0.0699459  -0.0807665  -0.0640992), wk =   0.0200000
        k(   90) = (  -0.0699459  -0.0807665  -0.0801240), wk =   0.0200000
        k(   91) = (  -0.0699459  -0.0807665   0.0961489), wk =   0.0100000
        k(   92) = (  -0.0524594  -0.0908624   0.0000000), wk =   0.0100000
        k(   93) = (  -0.0524594  -0.0908624  -0.0160248), wk =   0.0200000
        k(   94) = (  -0.0524594  -0.0908624  -0.0320496), wk =   0.0200000
        k(   95) = (  -0.0524594  -0.0908624  -0.0480744), wk =   0.0200000
        k(   96) = (  -0.0524594  -0.0908624  -0.0640992), wk =   0.0200000
        k(   97) = (  -0.0524594  -0.0908624  -0.0801240), wk =   0.0200000
        k(   98) = (  -0.0524594  -0.0908624   0.0961489), wk =   0.0100000

     Check: negative/imaginary core charge=   -0.000001    0.000000

     Initial potential from superposition of free atoms

     starting charge  101.98082, renormalised to  103.00000
     Starting wfcs are  101 randomized atomic wfcs

     Self-consistent Calculation

[...]

     total energy              =    -942.02564658 Ry
     Harris-Foulkes estimate   =    -942.02564658 Ry
     estimated scf accuracy    <          1.1E-11 Ry

     iteration # 26     ecut=    40.00 Ry     beta= 0.60
     Davidson diagonalization with overlap
     ethr =  1.00E-13,  avg # of iterations =  1.0

     End of self-consistent calculation

[...]

          k = 0.0874 0.0505 0.0961 (  4272 PWs)   bands (ev):

[...]

          k =-0.0525-0.0909 0.0961 (  4266 PWs)   bands (ev):

   -39.4828 -37.3578 -37.3516 -37.3305 -37.3299 -37.3252 -37.2607 -37.2317
   -15.8052 -15.7963 -15.7523 -13.8692 -13.8248 -13.7522 -13.7414 -13.7197
   -13.7024 -13.6759 -13.5887 -13.5149 -13.3982 -13.3278 -13.3173 -13.3099
   -13.2710 -13.2393 -13.2308 -13.1668 -13.0951 -13.0917 -13.0669 -13.0265
    13.9641  13.9866  14.1079  14.1185  14.2317  14.2593  14.9637  15.1921
    15.4773  15.6785  15.7897  15.7950  15.8184  15.8764  15.9325  16.1227
    16.4074  16.4500  16.5197  16.5740  16.5811  16.7867  16.8427  17.0469
    18.4346  18.4358  19.0065  19.0186  19.0227  19.0414

     the Fermi energy is    17.1951 ev

!    total energy              =    -942.02564658 Ry
     Harris-Foulkes estimate   =    -942.02564658 Ry
     estimated scf accuracy    <          5.9E-13 Ry

     The total energy is the sum of the following terms:

     one-electron contribution =    -165.24267016 Ry
     hartree contribution      =     133.12438593 Ry
     xc contribution           =    -143.48522987 Ry
     ewald contribution        =    -766.42040221 Ry
     smearing contrib. (-TS)   =      -0.00173027 Ry

     convergence has been achieved in  26 iterations

     Forces acting on atoms (cartesian axes, Ry/au):

     atom    1 type  2   force =     0.00000000    0.00000000    0.00000000
     atom    2 type  1   force =     0.00000000    0.00000410   -0.00000000
     atom    3 type  1   force =    -0.00000000    0.00000562    0.00000000
     atom    4 type  1   force =    -0.00000000   -0.00000000    0.00000000
     atom    5 type  1   force =    -0.00000487   -0.00000281    0.00000000
     atom    6 type  1   force =     0.00000355   -0.00000205   -0.00000000
     atom    7 type  1   force =     0.00000487   -0.00000281   -0.00000000
     atom    8 type  1   force =    -0.00000355   -0.00000205   -0.00000000

     Total force =     0.000012     Total SCF correction =     0.000001

     Computing stress (Cartesian axis) and pressure

          total   stress  (Ry/bohr**3)                   (kbar)     P=    0.22
   0.00000101   0.00000000   0.00000000          0.15      0.00      0.00
   0.00000000   0.00000101   0.00000000          0.00      0.15      0.00
   0.00000000   0.00000000   0.00000252          0.00      0.00      0.37

     General routines

     Parallel routines

       2h

   This run was terminated on:  11:37:56  27Feb2020

   JOB DONE.