     Program PWSCF v.6.3MaX starts on 21Feb2020 at  8:57:34

     R & G space division:  proc/nbgrp/npool/nimage =      12
     Waiting for input...
     Reading input from standard input

     Current dimensions of program PWSCF are:
     Max number of different atomic species (ntypx) = 10
     Max number of k-points (npk) =  40000
     Max angular momentum in pseudopotentials (lmaxx) =  3
     Message from routine iosys:
     minimal I/O required, wf_collect reset to FALSE

     Subspace diagonalization in iterative solution of the eigenvalue problem:
     a serial algorithm will be used

NOTICE: Bravais lattice has wrong number ( 3) of symmetries - symmetries are disabled

     bravais-lattice index     =            0
     lattice parameter (alat)  =       1.8897  a.u.
     unit-cell volume          =    1026.6786 (a.u.)^3
     number of atoms/cell      =            7
     number of atomic types    =            2
     number of electrons       =        87.00
     number of Kohn-Sham states=           53
     kinetic-energy cutoff     =      50.0000  Ry
     charge density cutoff     =     500.0000  Ry
     convergence threshold     =      1.0E-10
     mixing beta               =       0.6000
     number of iterations used =            8  plain     mixing
     Exchange-correlation      = SLA PW PBE PBE ( 1  4  3  4 0 0)
     nstep                     =           50

     celldm(1)=   1.889726  celldm(2)=   0.000000  celldm(3)=   0.000000
     celldm(4)=   0.000000  celldm(5)=   0.000000  celldm(6)=   0.000000

     crystal axes: (cart. coord. in units of alat)
               a(1) = (   1.758031  -5.274095  -5.274095 )
               a(2) = (  -5.274095   5.274095  -1.758031 )
               a(3) = (   5.274095   1.758031   5.274095 )

     reciprocal axes: (cart. coord. in units 2 pi/alat)
               b(1) = (  0.203149  0.121890 -0.243779 )
               b(2) = (  0.121890  0.243779 -0.203149 )
               b(3) = (  0.243779  0.203149 -0.121890 )

     PseudoPot. # 1 for Nb read from file:
     ./Nb.pbe-nsp-van.UPF
     MD5 check sum: 0a22fc7fb0ba19a08ca5db297a5d2854
     Pseudo is Ultrasoft + core correction, Zval = 13.0
     Generated by new atomic code, or converted to UPF format
     Using radial grid of  887 points,  6 beta functions with:
                l(1) =   0
                l(2) =   0
                l(3) =   1
                l(4) =   1
                l(5) =   2
                l(6) =   2
     Q(r) pseudized with  6 coefficients,  rinner =    1.000   1.000   1.000
                                                       1.000   1.000

     PseudoPot. # 2 for Ti read from file:
     ./Ti.pbe-sp-van_ak.UPF
     MD5 check sum: f98fea3e8887528921fefa5636a534ca
     Pseudo is Ultrasoft, Zval = 12.0
     Generated by new atomic code, or converted to UPF format
     Using radial grid of  851 points,  6 beta functions with:
                l(1) =   0
                l(2) =   0
                l(3) =   1
                l(4) =   1
                l(5) =   2
                l(6) =   2
     Q(r) pseudized with  8 coefficients,  rinner =    1.000   1.000   1.000
                                                       1.000   1.000

     atomic species   valence    mass     pseudopotential
        Nb            13.00    92.90638     Nb( 1.00)
        Ti            12.00    47.86700     Ti( 1.00)

     No symmetry found

   Cartesian axes

     site n.     atom                  positions (alat units)
         1           Ti  tau(   1) = (   1.7580316   1.7580316  -1.7580316  )
         2           Ti  tau(   2) = (   0.0000000   3.5160633   0.0000000  )
         3           Ti  tau(   3) = (   3.5160633   0.0000000   0.0000000  )
         4           Ti  tau(   4) = (   1.7580316   1.7580316   1.7580316  )
         5           Nb  tau(   5) = (   1.7580316  -1.7580316  -1.7580316  )
         6           Nb  tau(   6) = (   0.0000000   0.0000000  -3.5160633  )
         7           Nb  tau(   7) = (  -1.7580316   1.7580316  -1.7580316  )

     number of k points=   666  Marzari-Vanderbilt smearing, width (Ry)=  0.0200

     Number of k-points >= 100: set verbosity='high' to print them.

     Initial potential from superposition of free atoms

     starting charge   82.99162, renormalised to   87.00000
     Starting wfcs are   79 randomized atomic wfcs

     Self-consistent Calculation

     iteration #  1     ecut=    50.00 Ry     beta= 0.60
     Davidson diagonalization with overlap
     ethr =  1.00E-02,  avg # of iterations =  3.5

     total energy              =    -790.76757224 Ry
     Harris-Foulkes estimate   =    -825.65179014 Ry
     estimated scf accuracy    <      43.43754390 Ry

[...]

     iteration # 21     ecut=    50.00 Ry     beta= 0.60
     Davidson diagonalization with overlap
     c_bands:  1 eigenvalues not converged
     ethr =  8.70E-05,  avg # of iterations =  7.9

[...]

     End of self-consistent calculation

     Number of k-points >= 100: set verbosity='high' to print the bands.

     the Fermi energy is    11.8585 ev

!    total energy              =    -820.23396466 Ry
     Harris-Foulkes estimate   =    -820.23396466 Ry
     estimated scf accuracy    <          2.4E-11 Ry

     The total energy is the sum of the following terms:

     one-electron contribution =    -277.44983418 Ry
     hartree contribution      =     161.95210475 Ry
     xc contribution           =    -112.24163562 Ry
     ewald contribution        =    -592.49318165 Ry
     smearing contrib. (-TS)   =      -0.00141797 Ry

     convergence has been achieved in  43 iterations

     Forces acting on atoms (cartesian axes, Ry/au):

     atom    1 type  2   force =    -0.00489383   -0.00447656   -0.01323494
     atom    2 type  2   force =    -0.00403203    0.00448674    0.00407153
     atom    3 type  2   force =     0.00403171   -0.00448627   -0.00407133
     atom    4 type  2   force =     0.00489318    0.00447883    0.01323660
     atom    5 type  1   force =     0.00000072   -0.00000130   -0.00000052
     atom    6 type  1   force =    -0.00391668   -0.00299257    0.01200715
     atom    7 type  1   force =     0.00391694    0.00299114   -0.01200849

     Total force =     0.029686     Total SCF correction =     0.000015

     Computing stress (Cartesian axis) and pressure

          total   stress  (Ry/bohr**3)                   (kbar)     P= -195.04
  -0.00131342   0.00000661   0.00000978       -193.21      0.97      1.44
   0.00000661  -0.00133025   0.00002040          0.97   -195.69      3.00
   0.00000978   0.00002040  -0.00133391          1.44      3.00   -196.22

     BFGS Geometry Optimization

     number of scf cycles    =   1
     number of bfgs steps    =   0

     enthalpy new            =    -820.2339646587 Ry

     new trust radius        =       0.2137348845 bohr
     new conv_thr            =            1.0E-10 Ry

     new unit-cell volume =    927.93248 a.u.^3 (   137.50540 Ang^3 )
     density =      5.67806 g/cm^3

CELL_PARAMETERS (alat=  1.88972599)
   1.698143650  -5.101097104  -5.100475726
  -5.100475356   5.096928914  -1.698005187
   5.102498200   1.703128099   5.100402413

ATOMIC_POSITIONS (angstrom)
Ti       1.697659719   1.696665792  -1.704850417
Ti      -0.001481279   3.401427876   0.003876797
Ti       3.402674142  -0.001714427  -0.001223255
Ti       1.703532975   1.703048579   1.707504701
Nb       1.699585459  -1.700172567  -1.699872162
Nb      -0.002863312  -0.003321433  -3.392669731
Nb      -1.698441730   1.699905812  -1.705079937

     NEW-OLD atomic charge density approx. for the potential
     extrapolated charge   78.16843, renormalised to   87.00000

[...]

     enthalpy old            =    -820.2339646587 Ry
     enthalpy new            =    -820.3441682279 Ry

     CASE: enthalpy_new < enthalpy_old

[...]

     Threshold (ethr) on eigenvalues was too large:
     Diagonalizing with lowered threshold

     Davidson diagonalization with overlap
     ethr =  2.14E-08,  avg # of iterations =  1.9

[...]

     Total force =     0.000074     Total SCF correction =     0.000010
     SCF correction compared to forces is large: reduce conv_thr to get better values

[...]

     small trust_radius: resetting bfgs history

[...]

     number of scf cycles    =  44
     number of bfgs steps    =  43

     enthalpy old            =    -820.3956313423 Ry
     enthalpy new            =    -820.3956313452 Ry

     CASE: enthalpy_new < enthalpy_old

     Message from routine bfgs:
     history already reset at previous step: stopping
     small trust_radius: resetting bfgs history

     new trust radius        =       0.0000185415 bohr
     new conv_thr            =            1.7E-12 Ry

     new unit-cell volume =    829.71246 a.u.^3 (   122.95070 Ang^3 )
     density =      6.35022 g/cm^3

[...]

ATOMIC_POSITIONS (angstrom)
Ti       1.712367590   1.739106983  -1.817665419
Ti       0.028979417   3.179689003   0.023292398
Ti       3.240387523   0.052278084  -0.043099635
Ti       1.557037065   1.492836164   1.797865603
Nb       1.627977470  -1.599051873  -1.674125157
Nb      -0.032199728  -0.067962328  -3.269240594
Nb      -1.576570933   1.687761466  -1.753763015

     NEW-OLD atomic charge density approx. for the potential
     extrapolated charge   86.99964, renormalised to   87.00000

[...]

     Threshold (ethr) on eigenvalues was too large:
     Diagonalizing with lowered threshold

     Davidson diagonalization with overlap
     ethr =  1.23E-11,  avg # of iterations =  2.0

[...]

     bfgs converged in  45 scf cycles and  44 bfgs steps
     (criteria: energy <  1.0E-10 Ry, force <  1.0E-05Ry/Bohr, cell <  1.0E-03kbar)

     End of BFGS Geometry Optimization

     Final enthalpy =    -820.3956313469 Ry
Begin final coordinates
     new unit-cell volume =    829.71246 a.u.^3 (   122.95070 Ang^3 )
     density =      6.35022 g/cm^3

CELL_PARAMETERS (alat=  1.88972599)
   1.626043633  -4.808867396  -5.012628616
  -4.864723033   4.817896904  -1.674762347
   4.878174001   1.612134866   5.003207008

ATOMIC_POSITIONS (angstrom)
Ti       1.712367590   1.739106983  -1.817665419
Ti       0.028979417   3.179689003   0.023292398
Ti       3.240387523   0.052278084  -0.043099635
Ti       1.557037065   1.492836164   1.797865603
Nb       1.627977470  -1.599051873  -1.674125157
Nb      -0.032199728  -0.067962328  -3.269240594
Nb      -1.576570933   1.687761466  -1.753763015
End final coordinates

     A final scf calculation at the relaxed structure.
     The G-vectors are recalculated for the final unit cell
     Results may differ from those at the preceding step.

     bravais-lattice index     =            0
     lattice parameter (alat)  =       1.8897  a.u.
     unit-cell volume          =     829.7125 (a.u.)^3
     number of atoms/cell      =            7
     number of atomic types    =            2
     number of electrons       =        87.00
     number of Kohn-Sham states=           53
     kinetic-energy cutoff     =      50.0000  Ry
     charge density cutoff     =     500.0000  Ry
     convergence threshold     =      1.7E-12
     mixing beta               =       0.6000
     number of iterations used =            8  plain     mixing
     Exchange-correlation      = SLA PW PBE PBE ( 1  4  3  4 0 0)

     celldm(1)=   1.889726  celldm(2)=   0.000000  celldm(3)=   0.000000
     celldm(4)=   0.000000  celldm(5)=   0.000000  celldm(6)=   0.000000

     crystal axes: (cart. coord. in units of alat)
               a(1) = (   1.626044  -4.808867  -5.012629 )
               a(2) = (  -4.864723   4.817897  -1.674762 )
               a(3) = (   4.878174   1.612135   5.003207 )

     reciprocal axes: (cart. coord. in units 2 pi/alat)
               b(1) = (  0.218013  0.131511 -0.254941 )
               b(2) = (  0.129960  0.265049 -0.212117 )
               b(3) = (  0.261926  0.220481 -0.126552 )

     PseudoPot. # 1 for Nb read from file:
     ./Nb.pbe-nsp-van.UPF
     MD5 check sum: 0a22fc7fb0ba19a08ca5db297a5d2854
     Pseudo is Ultrasoft + core correction, Zval = 13.0
     Generated by new atomic code, or converted to UPF format
     Using radial grid of  887 points,  6 beta functions with:
                l(1) =   0
                l(2) =   0
                l(3) =   1
                l(4) =   1
                l(5) =   2
                l(6) =   2
     Q(r) pseudized with  6 coefficients,  rinner =    1.000   1.000   1.000
                                                       1.000   1.000

     PseudoPot. # 2 for Ti read from file:
     ./Ti.pbe-sp-van_ak.UPF
     MD5 check sum: f98fea3e8887528921fefa5636a534ca
     Pseudo is Ultrasoft, Zval = 12.0
     Generated by new atomic code, or converted to UPF format
     Using radial grid of  851 points,  6 beta functions with:
                l(1) =   0
                l(2) =   0
                l(3) =   1
                l(4) =   1
                l(5) =   2
                l(6) =   2
     Q(r) pseudized with  8 coefficients,  rinner =    1.000   1.000   1.000
                                                       1.000   1.000

     atomic species   valence    mass     pseudopotential
        Nb            13.00    92.90638     Nb( 1.00)
        Ti            12.00    47.86700     Ti( 1.00)

     No symmetry found

   Cartesian axes

     site n.     atom                  positions (alat units)
         1           Ti  tau(   1) = (   1.7123677   1.7391071  -1.8176656  )
         2           Ti  tau(   2) = (   0.0289794   3.1796892   0.0232924  )
         3           Ti  tau(   3) = (   3.2403878   0.0522781  -0.0430996  )
         4           Ti  tau(   4) = (   1.5570372   1.4928363   1.7978657  )
         5           Nb  tau(   5) = (   1.6279776  -1.5990520  -1.6741253  )
         6           Nb  tau(   6) = (  -0.0321997  -0.0679623  -3.2692408  )
         7           Nb  tau(   7) = (  -1.5765711   1.6877616  -1.7537631  )

     number of k points=   666  Marzari-Vanderbilt smearing, width (Ry)=  0.0200

     Number of k-points >= 100: set verbosity='high' to print them.

     Initial potential from superposition of free atoms

     starting charge   82.99162, renormalised to   87.00000
     Starting wfcs are   79 randomized atomic wfcs

     Self-consistent Calculation

[...]

     iteration # 18     ecut=    50.00 Ry     beta= 0.60
     Davidson diagonalization with overlap
     c_bands:  1 eigenvalues not converged
     ethr =  5.63E-07,  avg # of iterations =  5.6

[...]

     total energy              =    -820.39485620 Ry
     Harris-Foulkes estimate   =    -820.39485620 Ry
     estimated scf accuracy    <          7.6E-12 Ry

     iteration # 37     ecut=    50.00 Ry     beta= 0.60
     Davidson diagonalization with overlap
     ethr =  1.00E-13,  avg # of iterations =  1.0

     End of self-consistent calculation

     Number of k-points >= 100: set verbosity='high' to print the bands.

     the Fermi energy is    15.3311 ev

!    total energy              =    -820.39485620 Ry
     Harris-Foulkes estimate   =    -820.39485620 Ry
     estimated scf accuracy    <          3.5E-13 Ry

     The total energy is the sum of the following terms:

     one-electron contribution =    -214.12276407 Ry
     hartree contribution      =     142.82544972 Ry
     xc contribution           =    -113.47942636 Ry
     ewald contribution        =    -635.61831435 Ry
     smearing contrib. (-TS)   =       0.00019886 Ry

     convergence has been achieved in  37 iterations

     Forces acting on atoms (cartesian axes, Ry/au):

     atom    1 type  2   force =    -0.00000832   -0.00000213    0.00000463
     atom    2 type  2   force =     0.00001638   -0.00001356    0.00000167
     atom    3 type  2   force =    -0.00001140    0.00000856   -0.00000179
     atom    4 type  2   force =     0.00000694    0.00000397   -0.00000444
     atom    5 type  1   force =    -0.00000147    0.00000090   -0.00000026
     atom    6 type  1   force =     0.00001002   -0.00001257    0.00001110
     atom    7 type  1   force =    -0.00001215    0.00001482   -0.00001092

     Total force =     0.000041     Total SCF correction =     0.000003

     Computing stress (Cartesian axis) and pressure

          total   stress  (Ry/bohr**3)                   (kbar)     P=   -0.70
  -0.00000463  -0.00000016   0.00000010         -0.68     -0.02      0.01
  -0.00000016  -0.00000410   0.00000029         -0.02     -0.60      0.04
   0.00000010   0.00000029  -0.00000545          0.01      0.04     -0.80

     General routines

     Parallel routines

   This run was terminated on:  20: 9:53  22Feb2020

   JOB DONE.