     Program PWSCF v.6.3MaX starts on  3Feb2020 at 17: 9:53

     R & G space division:  proc/nbgrp/npool/nimage =       4
     Waiting for input...
     Reading input from standard input

     Current dimensions of program PWSCF are:
     Max number of different atomic species (ntypx) = 10
     Max number of k-points (npk) =  40000
     Max angular momentum in pseudopotentials (lmaxx) =  3
     Message from routine iosys:
     minimal I/O required, wf_collect reset to FALSE

     Subspace diagonalization in iterative solution of the eigenvalue problem:
     a serial algorithm will be used

     bravais-lattice index     =            0
     lattice parameter (alat)  =       1.8897  a.u.
     unit-cell volume          =     733.3418 (a.u.)^3
     number of atoms/cell      =            5
     number of atomic types    =            2
     number of electrons       =        62.00
     number of Kohn-Sham states=           37
     kinetic-energy cutoff     =      50.0000  Ry
     charge density cutoff     =     500.0000  Ry
     convergence threshold     =      1.0E-10
     mixing beta               =       0.6000
     number of iterations used =            8  plain     mixing
     Exchange-correlation      = SLA PW PBE PBE ( 1  4  3  4 0 0)
     nstep                     =           50

     celldm(1)=   1.889726  celldm(2)=   0.000000  celldm(3)=   0.000000
     celldm(4)=   0.000000  celldm(5)=   0.000000  celldm(6)=   0.000000

     crystal axes: (cart. coord. in units of alat)
               a(1) = (  -1.758031   1.758031   5.274095 )
               a(2) = (  -1.758031   5.274095   1.758031 )
               a(3) = (  -5.274095   1.758031   1.758031 )

     reciprocal axes: (cart. coord. in units 2 pi/alat)
               b(1) = (  0.056882 -0.056882  0.227527 )
               b(2) = (  0.056882  0.227527 -0.056882 )
               b(3) = ( -0.227527 -0.056882 -0.056882 )

     PseudoPot. # 1 for Nb read from file:
     ./Nb.pbe-nsp-van.UPF
     MD5 check sum: 0a22fc7fb0ba19a08ca5db297a5d2854
     Pseudo is Ultrasoft + core correction, Zval = 13.0
     Generated by new atomic code, or converted to UPF format
     Using radial grid of  887 points,  6 beta functions with:
                l(1) =   0
                l(2) =   0
                l(3) =   1
                l(4) =   1
                l(5) =   2
                l(6) =   2
     Q(r) pseudized with  6 coefficients,  rinner =    1.000   1.000   1.000
                                                       1.000   1.000

     PseudoPot. # 2 for Ti read from file:
     ./Ti.pbe-sp-van_ak.UPF
     MD5 check sum: f98fea3e8887528921fefa5636a534ca
     Pseudo is Ultrasoft, Zval = 12.0
     Generated by new atomic code, or converted to UPF format
     Using radial grid of  851 points,  6 beta functions with:
                l(1) =   0
                l(2) =   0
                l(3) =   1
                l(4) =   1
                l(5) =   2
                l(6) =   2
     Q(r) pseudized with  8 coefficients,  rinner =    1.000   1.000   1.000
                                                       1.000   1.000

     atomic species   valence    mass     pseudopotential
        Nb            13.00    92.90638     Nb( 1.00)
        Ti            12.00    47.86700     Ti( 1.00)

     12 Sym. Ops., with inversion, found

   Cartesian axes

     site n.     atom                  positions (alat units)
         1           Ti  tau(   1) = (  -3.5160633   3.5160633   3.5160633  )
         2           Ti  tau(   2) = (  -5.2740949   5.2740949   5.2740949  )
         3           Nb  tau(   3) = (  -7.0321265   7.0321265   7.0321265  )
         4           Ti  tau(   4) = (  -8.7901582   8.7901582   8.7901582  )
         5           Nb  tau(   5) = (  -1.7580316   1.7580316   1.7580316  )

     number of k points=   189  Marzari-Vanderbilt smearing, width (Ry)=  0.0200

     Number of k-points >= 100: set verbosity='high' to print them.

     Initial potential from superposition of free atoms

     starting charge   58.99440, renormalised to   62.00000
     Starting wfcs are   56 randomized atomic wfcs

     Self-consistent Calculation

     iteration #  1     ecut=    50.00 Ry     beta= 0.60
     Davidson diagonalization with overlap
     ethr =  1.00E-02,  avg # of iterations =  3.5

     total energy              =    -578.64882567 Ry
     Harris-Foulkes estimate   =    -587.70099713 Ry
     estimated scf accuracy    <      11.56143915 Ry

[...]

     iteration # 16     ecut=    50.00 Ry     beta= 0.60
     Davidson diagonalization with overlap
     c_bands:  1 eigenvalues not converged
     ethr =  2.02E-05,  avg # of iterations =  7.6

[...]

     End of self-consistent calculation

     Number of k-points >= 100: set verbosity='high' to print the bands.

     the Fermi energy is    11.7326 ev

!    total energy              =    -585.69738827 Ry
     Harris-Foulkes estimate   =    -585.69738827 Ry
     estimated scf accuracy    <          8.1E-11 Ry

     The total energy is the sum of the following terms:

     one-electron contribution =    -201.72395063 Ry
     hartree contribution      =     117.02733766 Ry
     xc contribution           =     -79.61827161 Ry
     ewald contribution        =    -421.38029016 Ry
     smearing contrib. (-TS)   =      -0.00221354 Ry

     convergence has been achieved in  33 iterations

     Forces acting on atoms (cartesian axes, Ry/au):

     atom    1 type  2   force =     0.00082654   -0.00082654   -0.00082654
     atom    2 type  2   force =    -0.00082654    0.00082654    0.00082654
     atom    3 type  1   force =    -0.00478905    0.00478905    0.00478905
     atom    4 type  2   force =     0.00000000    0.00000000    0.00000000
     atom    5 type  1   force =     0.00478905   -0.00478905   -0.00478905

     Total force =     0.011904     Total SCF correction =     0.000008

     Computing stress (Cartesian axis) and pressure

          total   stress  (Ry/bohr**3)                   (kbar)     P= -192.93
  -0.00131153  -0.00000841  -0.00000841       -192.93     -1.24     -1.24
  -0.00000841  -0.00131153   0.00000841         -1.24   -192.93      1.24
  -0.00000841   0.00000841  -0.00131153         -1.24      1.24   -192.93

     BFGS Geometry Optimization

     number of scf cycles    =   1
     number of bfgs steps    =   0

     enthalpy new            =    -585.6973882748 Ry

     new trust radius        =       0.1775896748 bohr
     new conv_thr            =            1.0E-10 Ry

     new unit-cell volume =    663.54633 a.u.^3 (    98.32742 Ang^3 )
     density =      5.56309 g/cm^3

CELL_PARAMETERS (alat=  1.88972599)
  -1.701867146   1.701867146   5.101905912
  -1.701867146   5.101905912   1.701867146
  -5.101905912   1.701867146   1.701867146

ATOMIC_POSITIONS (angstrom)
Ti      -3.401832850   3.401832850   3.401832850
Ti      -5.103807353   5.103807353   5.103807353
Nb      -6.806964388   6.806964388   6.806964388
Ti      -8.505640203   8.505640203   8.505640203
Nb      -1.698675815   1.698675815   1.698675815

     NEW-OLD atomic charge density approx. for the potential
     extrapolated charge   55.79464, renormalised to   62.00000

[...]

     enthalpy old            =    -585.6973882748 Ry
     enthalpy new            =    -585.7743232832 Ry

     CASE: enthalpy_new < enthalpy_old

[...]

     Threshold (ethr) on eigenvalues was too large:
     Diagonalizing with lowered threshold

     Davidson diagonalization with overlap
     ethr =  7.35E-09,  avg # of iterations =  1.7

[...]

     small trust_radius: resetting bfgs history

[...]

     number of scf cycles    =  15
     number of bfgs steps    =  14

     enthalpy old            =    -585.8088014006 Ry
     enthalpy new            =    -585.8088014134 Ry

     CASE: enthalpy_new < enthalpy_old

     Message from routine bfgs:
     history already reset at previous step: stopping
     small trust_radius: resetting bfgs history

     new trust radius        =       0.0000549144 bohr
     new conv_thr            =            3.2E-12 Ry

     new unit-cell volume =    589.93748 a.u.^3 (    87.41971 Ang^3 )
     density =      6.25722 g/cm^3

[...]

ATOMIC_POSITIONS (angstrom)
Ti      -3.253119226   3.253119226   3.253119226
Ti      -4.934800056   4.934800056   4.934800056
Nb      -6.546010733   6.546010733   6.546010733
Ti      -8.187919282   8.187919282   8.187919282
Nb      -1.641908549   1.641908549   1.641908549

     NEW-OLD atomic charge density approx. for the potential
     extrapolated charge   61.99971, renormalised to   62.00000

[...]

     Threshold (ethr) on eigenvalues was too large:
     Diagonalizing with lowered threshold

     Davidson diagonalization with overlap
     ethr =  1.89E-11,  avg # of iterations =  3.9

[...]

     bfgs converged in  16 scf cycles and  15 bfgs steps
     (criteria: energy <  1.0E-10 Ry, force <  1.0E-05Ry/Bohr, cell <  1.0E-03kbar)

     End of BFGS Geometry Optimization

     Final enthalpy =    -585.8088014220 Ry
Begin final coordinates
     new unit-cell volume =    589.93748 a.u.^3 (    87.41971 Ang^3 )
     density =      6.25722 g/cm^3

CELL_PARAMETERS (alat=  1.88972599)
  -1.640133821   1.640133821   4.907651640
  -1.640133821   4.907651640   1.640133821
  -4.907651640   1.640133821   1.640133821

ATOMIC_POSITIONS (angstrom)
Ti      -3.253119226   3.253119226   3.253119226
Ti      -4.934800056   4.934800056   4.934800056
Nb      -6.546010733   6.546010733   6.546010733
Ti      -8.187919282   8.187919282   8.187919282
Nb      -1.641908549   1.641908549   1.641908549
End final coordinates

     A final scf calculation at the relaxed structure.
     The G-vectors are recalculated for the final unit cell
     Results may differ from those at the preceding step.

     bravais-lattice index     =            0
     lattice parameter (alat)  =       1.8897  a.u.
     unit-cell volume          =     589.9375 (a.u.)^3
     number of atoms/cell      =            5
     number of atomic types    =            2
     number of electrons       =        62.00
     number of Kohn-Sham states=           37
     kinetic-energy cutoff     =      50.0000  Ry
     charge density cutoff     =     500.0000  Ry
     convergence threshold     =      3.2E-12
     mixing beta               =       0.6000
     number of iterations used =            8  plain     mixing
     Exchange-correlation      = SLA PW PBE PBE ( 1  4  3  4 0 0)

     celldm(1)=   1.889726  celldm(2)=   0.000000  celldm(3)=   0.000000
     celldm(4)=   0.000000  celldm(5)=   0.000000  celldm(6)=   0.000000

     crystal axes: (cart. coord. in units of alat)
               a(1) = (  -1.640134   1.640134   4.907652 )
               a(2) = (  -1.640134   4.907652   1.640134 )
               a(3) = (  -4.907652   1.640134   1.640134 )

     reciprocal axes: (cart. coord. in units 2 pi/alat)
               b(1) = (  0.061304 -0.061304  0.244739 )
               b(2) = (  0.061304  0.244739 -0.061304 )
               b(3) = ( -0.244739 -0.061304 -0.061304 )

     PseudoPot. # 1 for Nb read from file:
     ./Nb.pbe-nsp-van.UPF
     MD5 check sum: 0a22fc7fb0ba19a08ca5db297a5d2854
     Pseudo is Ultrasoft + core correction, Zval = 13.0
     Generated by new atomic code, or converted to UPF format
     Using radial grid of  887 points,  6 beta functions with:
                l(1) =   0
                l(2) =   0
                l(3) =   1
                l(4) =   1
                l(5) =   2
                l(6) =   2
     Q(r) pseudized with  6 coefficients,  rinner =    1.000   1.000   1.000
                                                       1.000   1.000

     PseudoPot. # 2 for Ti read from file:
     ./Ti.pbe-sp-van_ak.UPF
     MD5 check sum: f98fea3e8887528921fefa5636a534ca
     Pseudo is Ultrasoft, Zval = 12.0
     Generated by new atomic code, or converted to UPF format
     Using radial grid of  851 points,  6 beta functions with:
                l(1) =   0
                l(2) =   0
                l(3) =   1
                l(4) =   1
                l(5) =   2
                l(6) =   2
     Q(r) pseudized with  8 coefficients,  rinner =    1.000   1.000   1.000
                                                       1.000   1.000

     atomic species   valence    mass     pseudopotential
        Nb            13.00    92.90638     Nb( 1.00)
        Ti            12.00    47.86700     Ti( 1.00)

     12 Sym. Ops., with inversion, found

   Cartesian axes

     site n.     atom                  positions (alat units)
         1           Ti  tau(   1) = (  -3.2531195   3.2531195   3.2531195  )
         2           Ti  tau(   2) = (  -4.9348004   4.9348004   4.9348004  )
         3           Nb  tau(   3) = (  -6.5460112   6.5460112   6.5460112  )
         4           Ti  tau(   4) = (  -8.1879199   8.1879199   8.1879199  )
         5           Nb  tau(   5) = (  -1.6419087   1.6419087   1.6419087  )

     number of k points=   189  Marzari-Vanderbilt smearing, width (Ry)=  0.0200

     Number of k-points >= 100: set verbosity='high' to print them.

     Initial potential from superposition of free atoms

     starting charge   58.99440, renormalised to   62.00000
     Starting wfcs are   56 randomized atomic wfcs

     Self-consistent Calculation

     iteration #  1     ecut=    50.00 Ry     beta= 0.60
     Davidson diagonalization with overlap
     c_bands:  1 eigenvalues not converged
     c_bands:  1 eigenvalues not converged
     c_bands:  3 eigenvalues not converged
     c_bands:  1 eigenvalues not converged
     c_bands:  1 eigenvalues not converged
     c_bands:  2 eigenvalues not converged
     c_bands:  2 eigenvalues not converged
     c_bands:  1 eigenvalues not converged
     c_bands:  3 eigenvalues not converged
     c_bands:  1 eigenvalues not converged
     c_bands:  2 eigenvalues not converged
     c_bands:  1 eigenvalues not converged
     c_bands:  1 eigenvalues not converged
     c_bands:  1 eigenvalues not converged
     c_bands:  1 eigenvalues not converged
     c_bands:  1 eigenvalues not converged
     c_bands:  2 eigenvalues not converged
     c_bands:  1 eigenvalues not converged
     c_bands:  2 eigenvalues not converged
     c_bands:  1 eigenvalues not converged
     c_bands:  1 eigenvalues not converged
     c_bands:  1 eigenvalues not converged
     c_bands:  3 eigenvalues not converged
     c_bands:  2 eigenvalues not converged
     c_bands:  1 eigenvalues not converged
     c_bands:  2 eigenvalues not converged
     c_bands:  2 eigenvalues not converged
     c_bands:  2 eigenvalues not converged
     c_bands:  1 eigenvalues not converged
     c_bands:  1 eigenvalues not converged
     c_bands:  1 eigenvalues not converged
     c_bands:  2 eigenvalues not converged
     c_bands:  3 eigenvalues not converged
     c_bands:  3 eigenvalues not converged
     c_bands:  2 eigenvalues not converged
     c_bands:  1 eigenvalues not converged
     c_bands:  1 eigenvalues not converged
     c_bands:  1 eigenvalues not converged
     c_bands:  2 eigenvalues not converged
     c_bands:  2 eigenvalues not converged
     c_bands:  2 eigenvalues not converged
     c_bands:  1 eigenvalues not converged
     c_bands:  1 eigenvalues not converged
     c_bands:  2 eigenvalues not converged
     c_bands:  2 eigenvalues not converged
     c_bands:  2 eigenvalues not converged
     c_bands:  1 eigenvalues not converged
     c_bands:  2 eigenvalues not converged
     c_bands:  2 eigenvalues not converged
     c_bands:  1 eigenvalues not converged
     c_bands:  2 eigenvalues not converged
     c_bands:  2 eigenvalues not converged
     c_bands:  1 eigenvalues not converged
     c_bands:  2 eigenvalues not converged
     c_bands:  1 eigenvalues not converged
     c_bands:  1 eigenvalues not converged
     c_bands:  1 eigenvalues not converged
     c_bands:  2 eigenvalues not converged
     c_bands:  2 eigenvalues not converged
     c_bands:  1 eigenvalues not converged
[...]
     c_bands:  2 eigenvalues not converged
     c_bands:  2 eigenvalues not converged
     c_bands:  2 eigenvalues not converged
     c_bands:  2 eigenvalues not converged
     c_bands:  2 eigenvalues not converged
     c_bands:  1 eigenvalues not converged
     c_bands:  2 eigenvalues not converged
     c_bands:  2 eigenvalues not converged
     c_bands:  2 eigenvalues not converged
     c_bands:  2 eigenvalues not converged
     c_bands:  1 eigenvalues not converged
     c_bands:  1 eigenvalues not converged
     c_bands:  1 eigenvalues not converged
     c_bands:  2 eigenvalues not converged
     c_bands:  1 eigenvalues not converged
     ethr =  1.00E-06,  avg # of iterations = 17.9

[...]

     total energy              =    -585.80825255 Ry
     Harris-Foulkes estimate   =    -585.80825255 Ry
     estimated scf accuracy    <          4.8E-12 Ry

     iteration # 38     ecut=    50.00 Ry     beta= 0.60
     Davidson diagonalization with overlap
     ethr =  1.00E-13,  avg # of iterations =  1.0

     End of self-consistent calculation

     Number of k-points >= 100: set verbosity='high' to print the bands.

     the Fermi energy is    15.2467 ev

!    total energy              =    -585.80825255 Ry
     Harris-Foulkes estimate   =    -585.80825255 Ry
     estimated scf accuracy    <          1.2E-12 Ry

     The total energy is the sum of the following terms:

     one-electron contribution =    -155.01255404 Ry
     hartree contribution      =     102.76963088 Ry
     xc contribution           =     -80.50104928 Ry
     ewald contribution        =    -453.06186854 Ry
     smearing contrib. (-TS)   =      -0.00241157 Ry

     convergence has been achieved in  38 iterations

     Forces acting on atoms (cartesian axes, Ry/au):

     atom    1 type  2   force =    -0.00000714    0.00000714    0.00000714
     atom    2 type  2   force =     0.00000714   -0.00000714   -0.00000714
     atom    3 type  1   force =     0.00002148   -0.00002148   -0.00002148
     atom    4 type  2   force =     0.00000000    0.00000000    0.00000000
     atom    5 type  1   force =    -0.00002148    0.00002148    0.00002148

     Total force =     0.000055     Total SCF correction =     0.000001

     Computing stress (Cartesian axis) and pressure

          total   stress  (Ry/bohr**3)                   (kbar)     P=   -0.62
  -0.00000423  -0.00000011  -0.00000011         -0.62     -0.02     -0.02
  -0.00000011  -0.00000423   0.00000011         -0.02     -0.62      0.02
  -0.00000011   0.00000011  -0.00000423         -0.02      0.02     -0.62

     General routines

     Parallel routines

      41h

   This run was terminated on:  19:51:37   3Feb2020

   JOB DONE.