     Program PWSCF v.6.3MaX starts on  3Feb2020 at 10:25:41

     R & G space division:  proc/nbgrp/npool/nimage =       4
     Waiting for input...
     Reading input from standard input

     Current dimensions of program PWSCF are:
     Max number of different atomic species (ntypx) = 10
     Max number of k-points (npk) =  40000
     Max angular momentum in pseudopotentials (lmaxx) =  3
     Message from routine iosys:
     minimal I/O required, wf_collect reset to FALSE

     Subspace diagonalization in iterative solution of the eigenvalue problem:
     a serial algorithm will be used

     bravais-lattice index     =            0
     lattice parameter (alat)  =       1.8897  a.u.
     unit-cell volume          =     586.6735 (a.u.)^3
     number of atoms/cell      =            4
     number of atomic types    =            2
     number of electrons       =        50.00
     number of Kohn-Sham states=           30
     kinetic-energy cutoff     =      50.0000  Ry
     charge density cutoff     =     500.0000  Ry
     convergence threshold     =      1.0E-10
     mixing beta               =       0.6000
     number of iterations used =            8  plain     mixing
     Exchange-correlation      = SLA PW PBE PBE ( 1  4  3  4 0 0)
     nstep                     =           50

     celldm(1)=   1.889726  celldm(2)=   0.000000  celldm(3)=   0.000000
     celldm(4)=   0.000000  celldm(5)=   0.000000  celldm(6)=   0.000000

     crystal axes: (cart. coord. in units of alat)
               a(1) = (   1.758031   1.758031  -1.758031 )
               a(2) = (  -3.516063   3.516063   0.000000 )
               a(3) = (   1.758031   1.758031   5.274095 )

     reciprocal axes: (cart. coord. in units 2 pi/alat)
               b(1) = (  0.213307  0.213307 -0.142205 )
               b(2) = ( -0.142205  0.142205  0.000000 )
               b(3) = (  0.071102  0.071102  0.142205 )

     PseudoPot. # 1 for Nb read from file:
     ./Nb.pbe-nsp-van.UPF
     MD5 check sum: 0a22fc7fb0ba19a08ca5db297a5d2854
     Pseudo is Ultrasoft + core correction, Zval = 13.0
     Generated by new atomic code, or converted to UPF format
     Using radial grid of  887 points,  6 beta functions with:
                l(1) =   0
                l(2) =   0
                l(3) =   1
                l(4) =   1
                l(5) =   2
                l(6) =   2
     Q(r) pseudized with  6 coefficients,  rinner =    1.000   1.000   1.000
                                                       1.000   1.000

     PseudoPot. # 2 for Ti read from file:
     ./Ti.pbe-sp-van_ak.UPF
     MD5 check sum: f98fea3e8887528921fefa5636a534ca
     Pseudo is Ultrasoft, Zval = 12.0
     Generated by new atomic code, or converted to UPF format
     Using radial grid of  851 points,  6 beta functions with:
                l(1) =   0
                l(2) =   0
                l(3) =   1
                l(4) =   1
                l(5) =   2
                l(6) =   2
     Q(r) pseudized with  8 coefficients,  rinner =    1.000   1.000   1.000
                                                       1.000   1.000

     atomic species   valence    mass     pseudopotential
        Nb            13.00    92.90638     Nb( 1.00)
        Ti            12.00    47.86700     Ti( 1.00)

      2 Sym. Ops. (no inversion) found
          (note:  2 additional sym.ops. were found but ignored
           their fractional translations are incommensurate with FFT grid)

   Cartesian axes

     site n.     atom                  positions (alat units)
         1           Ti  tau(   1) = (  -1.7580316   5.2740949   1.7580316  )
         2           Ti  tau(   2) = (   0.0000000   3.5160633   3.5160633  )
         3           Nb  tau(   3) = (   0.0000000   7.0321265   3.5160633  )
         4           Nb  tau(   4) = (   0.0000000   3.5160633   0.0000000  )

     number of k points=   576  Marzari-Vanderbilt smearing, width (Ry)=  0.0200

     Number of k-points >= 100: set verbosity='high' to print them.

     Initial potential from superposition of free atoms

     starting charge   47.99445, renormalised to   50.00000
     Starting wfcs are   46 randomized atomic wfcs

     Self-consistent Calculation

     iteration #  1     ecut=    50.00 Ry     beta= 0.60
     Davidson diagonalization with overlap
     ethr =  1.00E-02,  avg # of iterations =  3.3

     total energy              =    -454.98156579 Ry
     Harris-Foulkes estimate   =    -471.41476968 Ry
     estimated scf accuracy    <      20.60637619 Ry

[...]

     iteration # 17     ecut=    50.00 Ry     beta= 0.60
     Davidson diagonalization with overlap
     c_bands:  1 eigenvalues not converged
     ethr =  3.96E-05,  avg # of iterations =  3.3

[...]

     End of self-consistent calculation

     Number of k-points >= 100: set verbosity='high' to print the bands.

     the Fermi energy is    12.1722 ev

!    total energy              =    -469.07176591 Ry
     Harris-Foulkes estimate   =    -469.07176591 Ry
     estimated scf accuracy    <          5.9E-11 Ry

     The total energy is the sum of the following terms:

     one-electron contribution =    -150.85824882 Ry
     hartree contribution      =      89.56384621 Ry
     xc contribution           =     -65.24396000 Ry
     ewald contribution        =    -342.53242269 Ry
     smearing contrib. (-TS)   =      -0.00098060 Ry

     convergence has been achieved in  30 iterations

     Forces acting on atoms (cartesian axes, Ry/au):

     atom    1 type  2   force =    -0.00037495   -0.00037495   -0.00944023
     atom    2 type  2   force =     0.00036960    0.00036960    0.00944533
     atom    3 type  1   force =    -0.00343102   -0.00343102    0.01286535
     atom    4 type  1   force =     0.00343637    0.00343637   -0.01287044

     Total force =     0.023605     Total SCF correction =     0.000014

     Computing stress (Cartesian axis) and pressure

          total   stress  (Ry/bohr**3)                   (kbar)     P= -199.10
  -0.00135113   0.00001455   0.00002616       -198.76      2.14      3.85
   0.00001455  -0.00135113   0.00002616          2.14   -198.76      3.85
   0.00002616   0.00002616  -0.00135818          3.85      3.85   -199.79

     BFGS Geometry Optimization

     number of scf cycles    =   1
     number of bfgs steps    =   0

     enthalpy new            =    -469.0717659059 Ry

     new trust radius        =       0.1645454830 bohr
     new conv_thr            =            1.0E-10 Ry

     new unit-cell volume =    529.11163 a.u.^3 (    78.40625 Ang^3 )
     density =      5.96278 g/cm^3

CELL_PARAMETERS (alat=  1.88972599)
   1.698137873   1.698137873  -1.696038671
  -3.396018227   3.396018227   0.000000000
   1.702737561   1.702737561   5.097315389

ATOMIC_POSITIONS (angstrom)
Ti      -1.695775560   5.096260894   1.695812165
Ti       0.003770843   3.399789070   3.403805669
Nb       0.003106712   6.795143166   3.407851228
Nb       0.003031910   3.399050137  -0.004277266

     NEW-OLD atomic charge density approx. for the potential
     extrapolated charge   44.77870, renormalised to   50.00000

[...]

     enthalpy old            =    -469.0717659059 Ry
     enthalpy new            =    -469.1368248662 Ry

     CASE: enthalpy_new < enthalpy_old

[...]

     Threshold (ethr) on eigenvalues was too large:
     Diagonalizing with lowered threshold

     Davidson diagonalization with overlap
     ethr =  7.48E-08,  avg # of iterations =  1.5

[...]

     Total force =     0.000036     Total SCF correction =     0.000004
     SCF correction compared to forces is large: reduce conv_thr to get better values

[...]

     small trust_radius: resetting bfgs history

[...]

     number of scf cycles    =  29
     number of bfgs steps    =  28

     enthalpy old            =    -469.1654633587 Ry
     enthalpy new            =    -469.1654633591 Ry

     CASE: enthalpy_new < enthalpy_old

     Message from routine bfgs:
     history already reset at previous step: stopping
     small trust_radius: resetting bfgs history

     new trust radius        =       0.0000109623 bohr
     new conv_thr            =            1.0E-12 Ry

     new unit-cell volume =    475.19182 a.u.^3 (    70.41616 Ang^3 )
     density =      6.63938 g/cm^3

[...]

ATOMIC_POSITIONS (angstrom)
Ti      -1.525681600   4.923486733   1.606446610
Ti      -0.013976437   3.210607729   3.379813923
Nb       0.022883389   6.472051723   3.392919200
Nb       0.080402995   3.304987161  -0.061363528

     NEW-OLD atomic charge density approx. for the potential
     extrapolated charge   49.99997, renormalised to   50.00000

[...]

     Threshold (ethr) on eigenvalues was too large:
     Diagonalizing with lowered threshold

     Davidson diagonalization with overlap
     ethr =  3.37E-13,  avg # of iterations =  4.2

[...]

     Total force =     0.000005     Total SCF correction =     0.000001
     SCF correction compared to forces is large: reduce conv_thr to get better values

[...]

     bfgs converged in  30 scf cycles and  29 bfgs steps
     (criteria: energy <  1.0E-10 Ry, force <  1.0E-05Ry/Bohr, cell <  1.0E-03kbar)

     End of BFGS Geometry Optimization

     Final enthalpy =    -469.1654633593 Ry
Begin final coordinates
     new unit-cell volume =    475.19182 a.u.^3 (    70.41616 Ang^3 )
     density =      6.63938 g/cm^3

CELL_PARAMETERS (alat=  1.88972599)
   1.642971557   1.642971557  -1.654734283
  -3.224584167   3.224584167   0.000000000
   1.651980782   1.651980782   4.981860765

ATOMIC_POSITIONS (angstrom)
Ti      -1.525681600   4.923486733   1.606446610
Ti      -0.013976437   3.210607729   3.379813923
Nb       0.022883389   6.472051723   3.392919200
Nb       0.080402995   3.304987161  -0.061363528
End final coordinates

     A final scf calculation at the relaxed structure.
     The G-vectors are recalculated for the final unit cell
     Results may differ from those at the preceding step.

     bravais-lattice index     =            0
     lattice parameter (alat)  =       1.8897  a.u.
     unit-cell volume          =     475.1918 (a.u.)^3
     number of atoms/cell      =            4
     number of atomic types    =            2
     number of electrons       =        50.00
     number of Kohn-Sham states=           30
     kinetic-energy cutoff     =      50.0000  Ry
     charge density cutoff     =     500.0000  Ry
     convergence threshold     =      1.0E-12
     mixing beta               =       0.6000
     number of iterations used =            8  plain     mixing
     Exchange-correlation      = SLA PW PBE PBE ( 1  4  3  4 0 0)

     celldm(1)=   1.889726  celldm(2)=   0.000000  celldm(3)=   0.000000
     celldm(4)=   0.000000  celldm(5)=   0.000000  celldm(6)=   0.000000

     crystal axes: (cart. coord. in units of alat)
               a(1) = (   1.642972   1.642972  -1.654734 )
               a(2) = (  -3.224584   3.224584   0.000000 )
               a(3) = (   1.651981   1.651981   4.981861 )

     reciprocal axes: (cart. coord. in units 2 pi/alat)
               b(1) = (  0.228135  0.228135 -0.151299 )
               b(2) = ( -0.155059  0.155059  0.000000 )
               b(3) = (  0.075776  0.075776  0.150474 )

     PseudoPot. # 1 for Nb read from file:
     ./Nb.pbe-nsp-van.UPF
     MD5 check sum: 0a22fc7fb0ba19a08ca5db297a5d2854
     Pseudo is Ultrasoft + core correction, Zval = 13.0
     Generated by new atomic code, or converted to UPF format
     Using radial grid of  887 points,  6 beta functions with:
                l(1) =   0
                l(2) =   0
                l(3) =   1
                l(4) =   1
                l(5) =   2
                l(6) =   2
     Q(r) pseudized with  6 coefficients,  rinner =    1.000   1.000   1.000
                                                       1.000   1.000

     PseudoPot. # 2 for Ti read from file:
     ./Ti.pbe-sp-van_ak.UPF
     MD5 check sum: f98fea3e8887528921fefa5636a534ca
     Pseudo is Ultrasoft, Zval = 12.0
     Generated by new atomic code, or converted to UPF format
     Using radial grid of  851 points,  6 beta functions with:
                l(1) =   0
                l(2) =   0
                l(3) =   1
                l(4) =   1
                l(5) =   2
                l(6) =   2
     Q(r) pseudized with  8 coefficients,  rinner =    1.000   1.000   1.000
                                                       1.000   1.000

     atomic species   valence    mass     pseudopotential
        Nb            13.00    92.90638     Nb( 1.00)
        Ti            12.00    47.86700     Ti( 1.00)

      2 Sym. Ops. (no inversion) found
          (note:  2 additional sym.ops. were found but ignored
           their fractional translations are incommensurate with FFT grid)

   Cartesian axes

     site n.     atom                  positions (alat units)
         1           Ti  tau(   1) = (  -1.5256817   4.9234871   1.6064467  )
         2           Ti  tau(   2) = (  -0.0139764   3.2106080   3.3798142  )
         3           Nb  tau(   3) = (   0.0228834   6.4720522   3.3929195  )
         4           Nb  tau(   4) = (   0.0804030   3.3049874  -0.0613635  )

     number of k points=   576  Marzari-Vanderbilt smearing, width (Ry)=  0.0200

     Number of k-points >= 100: set verbosity='high' to print them.

     Initial potential from superposition of free atoms

     starting charge   47.99445, renormalised to   50.00000
     Starting wfcs are   46 randomized atomic wfcs

     Self-consistent Calculation

     iteration #  1     ecut=    50.00 Ry     beta= 0.60
     Davidson diagonalization with overlap
     c_bands:  1 eigenvalues not converged
     c_bands:  1 eigenvalues not converged
     c_bands:  1 eigenvalues not converged
     c_bands:  1 eigenvalues not converged
     c_bands:  1 eigenvalues not converged
     c_bands:  1 eigenvalues not converged
     c_bands:  1 eigenvalues not converged
     c_bands:  1 eigenvalues not converged
     c_bands:  1 eigenvalues not converged
     c_bands:  1 eigenvalues not converged
     c_bands:  1 eigenvalues not converged
     c_bands:  1 eigenvalues not converged
     c_bands:  2 eigenvalues not converged
     c_bands:  2 eigenvalues not converged
     c_bands:  1 eigenvalues not converged
     c_bands:  1 eigenvalues not converged
     c_bands:  1 eigenvalues not converged
     c_bands:  1 eigenvalues not converged
     c_bands:  1 eigenvalues not converged
     c_bands:  1 eigenvalues not converged
     c_bands:  1 eigenvalues not converged
     c_bands:  1 eigenvalues not converged
     c_bands:  1 eigenvalues not converged
     c_bands:  1 eigenvalues not converged
     c_bands:  1 eigenvalues not converged
     c_bands:  1 eigenvalues not converged
     c_bands:  1 eigenvalues not converged
     c_bands:  1 eigenvalues not converged
     c_bands:  1 eigenvalues not converged
     c_bands:  1 eigenvalues not converged
     c_bands:  1 eigenvalues not converged
     c_bands:  1 eigenvalues not converged
     c_bands:  1 eigenvalues not converged
     c_bands:  1 eigenvalues not converged
     c_bands:  1 eigenvalues not converged
     c_bands:  1 eigenvalues not converged
     c_bands:  2 eigenvalues not converged
     c_bands:  2 eigenvalues not converged
     c_bands:  1 eigenvalues not converged
     c_bands:  1 eigenvalues not converged
     c_bands:  1 eigenvalues not converged
     c_bands:  1 eigenvalues not converged
     c_bands:  1 eigenvalues not converged
     c_bands:  1 eigenvalues not converged
     c_bands:  1 eigenvalues not converged
     c_bands:  1 eigenvalues not converged
     c_bands:  1 eigenvalues not converged
     c_bands:  1 eigenvalues not converged
     c_bands:  1 eigenvalues not converged
     c_bands:  1 eigenvalues not converged
     c_bands:  1 eigenvalues not converged
     c_bands:  1 eigenvalues not converged
     c_bands:  1 eigenvalues not converged
     c_bands:  1 eigenvalues not converged
     c_bands:  1 eigenvalues not converged
     c_bands:  2 eigenvalues not converged
     c_bands:  1 eigenvalues not converged
     c_bands:  1 eigenvalues not converged
     c_bands:  1 eigenvalues not converged
     c_bands:  1 eigenvalues not converged
[...]
     c_bands:  1 eigenvalues not converged
     c_bands:  1 eigenvalues not converged
     c_bands:  1 eigenvalues not converged
     c_bands:  1 eigenvalues not converged
     c_bands:  1 eigenvalues not converged
     c_bands:  1 eigenvalues not converged
     c_bands:  1 eigenvalues not converged
     c_bands:  1 eigenvalues not converged
     c_bands:  1 eigenvalues not converged
     c_bands:  1 eigenvalues not converged
     c_bands:  1 eigenvalues not converged
     c_bands:  1 eigenvalues not converged
     c_bands:  1 eigenvalues not converged
     c_bands:  1 eigenvalues not converged
     c_bands:  1 eigenvalues not converged
     ethr =  1.00E-06,  avg # of iterations = 15.3

[...]

     total energy              =    -469.16501309 Ry
     Harris-Foulkes estimate   =    -469.16501309 Ry
     estimated scf accuracy    <          1.2E-12 Ry

     iteration # 36     ecut=    50.00 Ry     beta= 0.60
     Davidson diagonalization with overlap
     ethr =  1.00E-13,  avg # of iterations =  1.0

     End of self-consistent calculation

     Number of k-points >= 100: set verbosity='high' to print the bands.

     the Fermi energy is    15.6785 ev

!    total energy              =    -469.16501309 Ry
     Harris-Foulkes estimate   =    -469.16501309 Ry
     estimated scf accuracy    <          6.4E-13 Ry

     The total energy is the sum of the following terms:

     one-electron contribution =    -114.73948001 Ry
     hartree contribution      =      78.77329537 Ry
     xc contribution           =     -65.96714285 Ry
     ewald contribution        =    -367.23134471 Ry
     smearing contrib. (-TS)   =      -0.00034088 Ry

     convergence has been achieved in  36 iterations

     Forces acting on atoms (cartesian axes, Ry/au):

     atom    1 type  2   force =    -0.00001436   -0.00001436    0.00000319
     atom    2 type  2   force =     0.00001552    0.00001552    0.00000197
     atom    3 type  1   force =     0.00000199    0.00000199    0.00000991
     atom    4 type  1   force =    -0.00000314   -0.00000314   -0.00001507

     Total force =     0.000036     Total SCF correction =     0.000002

     Computing stress (Cartesian axis) and pressure

          total   stress  (Ry/bohr**3)                   (kbar)     P=   -0.84
  -0.00000559  -0.00000032   0.00000012         -0.82     -0.05      0.02
  -0.00000032  -0.00000559   0.00000012         -0.05     -0.82      0.02
   0.00000012   0.00000012  -0.00000602          0.02      0.02     -0.88

     General routines

     Parallel routines

       6h

   This run was terminated on:  15:32:15   3Feb2020

   JOB DONE.