     Program PWSCF v.6.3MaX starts on 24Feb2020 at 20: 7:55

     R & G space division:  proc/nbgrp/npool/nimage =       4
     Waiting for input...
     Reading input from standard input

     Current dimensions of program PWSCF are:
     Max number of different atomic species (ntypx) = 10
     Max number of k-points (npk) =  40000
     Max angular momentum in pseudopotentials (lmaxx) =  3
     Message from routine iosys:
     minimal I/O required, wf_collect reset to FALSE

     Subspace diagonalization in iterative solution of the eigenvalue problem:
     a serial algorithm will be used

     bravais-lattice index     =            0
     lattice parameter (alat)  =       1.8897  a.u.
     unit-cell volume          =     733.3418 (a.u.)^3
     number of atoms/cell      =            5
     number of atomic types    =            2
     number of electrons       =        64.00
     number of Kohn-Sham states=           38
     kinetic-energy cutoff     =      50.0000  Ry
     charge density cutoff     =     500.0000  Ry
     convergence threshold     =      1.0E-10
     mixing beta               =       0.6000
     number of iterations used =            8  plain     mixing
     Exchange-correlation      = SLA PW PBE PBE ( 1  4  3  4 0 0)
     nstep                     =           50

     celldm(1)=   1.889726  celldm(2)=   0.000000  celldm(3)=   0.000000
     celldm(4)=   0.000000  celldm(5)=   0.000000  celldm(6)=   0.000000

     crystal axes: (cart. coord. in units of alat)
               a(1) = (  -1.758031  -5.274095  -1.758031 )
               a(2) = (  -1.758031   5.274095   1.758031 )
               a(3) = (   1.758031   1.758031  -5.274095 )

     reciprocal axes: (cart. coord. in units 2 pi/alat)
               b(1) = ( -0.284409 -0.056882 -0.113764 )
               b(2) = ( -0.284409  0.113764 -0.056882 )
               b(3) = (  0.000000  0.056882 -0.170645 )

     PseudoPot. # 1 for Nb read from file:
     ./Nb.pbe-nsp-van.UPF
     MD5 check sum: 0a22fc7fb0ba19a08ca5db297a5d2854
     Pseudo is Ultrasoft + core correction, Zval = 13.0
     Generated by new atomic code, or converted to UPF format
     Using radial grid of  887 points,  6 beta functions with:
                l(1) =   0
                l(2) =   0
                l(3) =   1
                l(4) =   1
                l(5) =   2
                l(6) =   2
     Q(r) pseudized with  6 coefficients,  rinner =    1.000   1.000   1.000
                                                       1.000   1.000

     PseudoPot. # 2 for Ti read from file:
     ./Ti.pbe-sp-van_ak.UPF
     MD5 check sum: f98fea3e8887528921fefa5636a534ca
     Pseudo is Ultrasoft, Zval = 12.0
     Generated by new atomic code, or converted to UPF format
     Using radial grid of  851 points,  6 beta functions with:
                l(1) =   0
                l(2) =   0
                l(3) =   1
                l(4) =   1
                l(5) =   2
                l(6) =   2
     Q(r) pseudized with  8 coefficients,  rinner =    1.000   1.000   1.000
                                                       1.000   1.000

     atomic species   valence    mass     pseudopotential
        Nb            13.00    92.90638     Nb( 1.00)
        Ti            12.00    47.86700     Ti( 1.00)

      8 Sym. Ops., with inversion, found

   Cartesian axes

     site n.     atom                  positions (alat units)
         1           Ti  tau(   1) = (  -1.7580316   1.7580316  -5.2740949  )
         2           Nb  tau(   2) = (  -1.7580316   1.7580316  -1.7580316  )
         3           Nb  tau(   3) = (  -1.7580316  -1.7580316  -1.7580316  )
         4           Nb  tau(   4) = (   0.0000000   3.5160633  -3.5160633  )
         5           Nb  tau(   5) = (   0.0000000   0.0000000  -3.5160633  )

     number of k points=   242  Marzari-Vanderbilt smearing, width (Ry)=  0.0200

     Number of k-points >= 100: set verbosity='high' to print them.

     Initial potential from superposition of free atoms

     starting charge   62.98902, renormalised to   64.00000
     Starting wfcs are   62 randomized atomic wfcs

     Self-consistent Calculation

     iteration #  1     ecut=    50.00 Ry     beta= 0.60
     Davidson diagonalization with overlap
     ethr =  1.00E-02,  avg # of iterations =  2.0

     total energy              =    -564.99975703 Ry
     Harris-Foulkes estimate   =    -590.74796613 Ry
     estimated scf accuracy    <      32.12370903 Ry

[...]

     End of self-consistent calculation

     Number of k-points >= 100: set verbosity='high' to print the bands.

     the Fermi energy is    13.5056 ev

!    total energy              =    -588.26696163 Ry
     Harris-Foulkes estimate   =    -588.26696163 Ry
     estimated scf accuracy    <          2.2E-11 Ry

     The total energy is the sum of the following terms:

     one-electron contribution =    -148.63862659 Ry
     hartree contribution      =      96.61407122 Ry
     xc contribution           =     -87.37284790 Ry
     ewald contribution        =    -448.86988960 Ry
     smearing contrib. (-TS)   =       0.00033124 Ry

     convergence has been achieved in  29 iterations

     Forces acting on atoms (cartesian axes, Ry/au):

     atom    1 type  2   force =     0.00000000    0.00000000    0.00000000
     atom    2 type  1   force =     0.00000000    0.01270619   -0.01483836
     atom    3 type  1   force =     0.00000000   -0.01483836   -0.01270619
     atom    4 type  1   force =     0.00000000    0.01483836    0.01270619
     atom    5 type  1   force =     0.00000000   -0.01270619    0.01483836

     Total force =     0.039070     Total SCF correction =     0.000014

     Computing stress (Cartesian axis) and pressure

          total   stress  (Ry/bohr**3)                   (kbar)     P= -214.39
  -0.00145075   0.00000000  -0.00000000       -213.41      0.00     -0.00
   0.00000000  -0.00146069   0.00000000          0.00   -214.87      0.00
   0.00000000   0.00000000  -0.00146069          0.00      0.00   -214.87

     BFGS Geometry Optimization

     number of scf cycles    =   1
     number of bfgs steps    =   0

     enthalpy new            =    -588.2669616269 Ry

     new trust radius        =       0.1977792730 bohr
     new conv_thr            =            1.0E-10 Ry

     new unit-cell volume =    656.07020 a.u.^3 (    97.21957 Ang^3 )
     density =      7.16506 g/cm^3

CELL_PARAMETERS (alat=  1.88972599)
  -1.694269828  -5.081499299  -1.693833100
  -1.694269828   5.081499299   1.693833100
   1.694269828   1.693833100  -5.081499299

ATOMIC_POSITIONS (angstrom)
Ti      -1.694269828   1.693833100  -5.081499299
Nb      -1.694269828   1.700311393  -1.701398482
Nb      -1.694269828  -1.701398482  -1.700311393
Nb       0.000000000   3.395231582  -3.381187906
Nb       0.000000000  -0.006478293  -3.380100817

     NEW-OLD atomic charge density approx. for the potential
     extrapolated charge   56.58118, renormalised to   64.00000

[...]

     iteration #  1     ecut=    50.00 Ry     beta= 0.60
     Davidson diagonalization with overlap
     c_bands:  1 eigenvalues not converged
     c_bands:  1 eigenvalues not converged
     c_bands:  1 eigenvalues not converged
     c_bands:  1 eigenvalues not converged
     c_bands:  1 eigenvalues not converged
     c_bands:  1 eigenvalues not converged
     c_bands:  1 eigenvalues not converged
     c_bands:  1 eigenvalues not converged
     c_bands:  1 eigenvalues not converged
     c_bands:  1 eigenvalues not converged
     c_bands:  1 eigenvalues not converged
     c_bands:  1 eigenvalues not converged
     c_bands:  1 eigenvalues not converged
     c_bands:  1 eigenvalues not converged
     c_bands:  1 eigenvalues not converged
     c_bands:  1 eigenvalues not converged
     c_bands:  1 eigenvalues not converged
     c_bands:  1 eigenvalues not converged
     c_bands:  1 eigenvalues not converged
     c_bands:  1 eigenvalues not converged
     c_bands:  1 eigenvalues not converged
     c_bands:  2 eigenvalues not converged
     c_bands:  1 eigenvalues not converged
     c_bands:  1 eigenvalues not converged
     c_bands:  1 eigenvalues not converged
     c_bands:  1 eigenvalues not converged
     c_bands:  1 eigenvalues not converged
     c_bands:  1 eigenvalues not converged
     c_bands:  1 eigenvalues not converged
     c_bands:  1 eigenvalues not converged
     c_bands:  1 eigenvalues not converged
     c_bands:  1 eigenvalues not converged
     c_bands:  1 eigenvalues not converged
     c_bands:  1 eigenvalues not converged
     c_bands:  1 eigenvalues not converged
     c_bands:  1 eigenvalues not converged
     c_bands:  1 eigenvalues not converged
     c_bands:  1 eigenvalues not converged
     c_bands:  1 eigenvalues not converged
     c_bands:  1 eigenvalues not converged
     c_bands:  1 eigenvalues not converged
     ethr =  1.00E-06,  avg # of iterations = 16.0

[...]

     enthalpy old            =    -588.2669616269 Ry
     enthalpy new            =    -588.3571452861 Ry

     CASE: enthalpy_new < enthalpy_old

[...]

     iteration #  1     ecut=    50.00 Ry     beta= 0.60
     Davidson diagonalization with overlap
     c_bands:  1 eigenvalues not converged
     c_bands:  1 eigenvalues not converged
     c_bands:  1 eigenvalues not converged
     c_bands:  1 eigenvalues not converged
     c_bands:  1 eigenvalues not converged
     c_bands:  1 eigenvalues not converged
     c_bands:  1 eigenvalues not converged
     c_bands:  1 eigenvalues not converged
     c_bands:  1 eigenvalues not converged
     c_bands:  1 eigenvalues not converged
     c_bands:  1 eigenvalues not converged
     c_bands:  1 eigenvalues not converged
     c_bands:  1 eigenvalues not converged
     c_bands:  1 eigenvalues not converged
     c_bands:  1 eigenvalues not converged
     c_bands:  2 eigenvalues not converged
     c_bands:  1 eigenvalues not converged
     c_bands:  1 eigenvalues not converged
     c_bands:  1 eigenvalues not converged
     c_bands:  1 eigenvalues not converged
     c_bands:  1 eigenvalues not converged
     c_bands:  2 eigenvalues not converged
     c_bands:  1 eigenvalues not converged
     c_bands:  1 eigenvalues not converged
     c_bands:  1 eigenvalues not converged
     c_bands:  1 eigenvalues not converged
     c_bands:  1 eigenvalues not converged
     c_bands:  1 eigenvalues not converged
     c_bands:  1 eigenvalues not converged
     c_bands:  2 eigenvalues not converged
     c_bands:  1 eigenvalues not converged
     c_bands:  1 eigenvalues not converged
     c_bands:  2 eigenvalues not converged
     c_bands:  1 eigenvalues not converged
     c_bands:  1 eigenvalues not converged
     c_bands:  1 eigenvalues not converged
     c_bands:  1 eigenvalues not converged
     c_bands:  1 eigenvalues not converged
     c_bands:  1 eigenvalues not converged
     c_bands:  1 eigenvalues not converged
     c_bands:  1 eigenvalues not converged
     c_bands:  1 eigenvalues not converged
     c_bands:  1 eigenvalues not converged
     c_bands:  1 eigenvalues not converged
     c_bands:  1 eigenvalues not converged
     c_bands:  1 eigenvalues not converged
     c_bands:  1 eigenvalues not converged
     c_bands:  1 eigenvalues not converged
     c_bands:  1 eigenvalues not converged
     c_bands:  2 eigenvalues not converged
     c_bands:  1 eigenvalues not converged
     c_bands:  1 eigenvalues not converged
     ethr =  1.00E-06,  avg # of iterations = 15.8

[...]

     Threshold (ethr) on eigenvalues was too large:
     Diagonalizing with lowered threshold

     Davidson diagonalization with overlap
     ethr =  6.96E-08,  avg # of iterations =  1.9

[...]

     small trust_radius: resetting bfgs history

[...]

     Total force =     0.000017     Total SCF correction =     0.000002
     SCF correction compared to forces is large: reduce conv_thr to get better values

[...]

     number of scf cycles    =  14
     number of bfgs steps    =  13

     enthalpy old            =    -588.3809064582 Ry
     enthalpy new            =    -588.3809064605 Ry

     CASE: enthalpy_new < enthalpy_old

     Message from routine bfgs:
     history already reset at previous step: stopping
     small trust_radius: resetting bfgs history

     new trust radius        =       0.0000206001 bohr
     new conv_thr            =            1.0E-12 Ry

     new unit-cell volume =    604.22781 a.u.^3 (    89.53732 Ang^3 )
     density =      7.77981 g/cm^3

[...]

ATOMIC_POSITIONS (angstrom)
Ti      -1.652992180   1.645703918  -4.937111753
Nb      -1.652992180   1.656194183  -1.697247488
Nb      -1.652992180  -1.697247488  -1.656194183
Nb       0.000000000   3.342951406  -3.280917570
Nb       0.000000000  -0.010490265  -3.239864265

     NEW-OLD atomic charge density approx. for the potential
     extrapolated charge   63.99995, renormalised to   64.00000

[...]

     Threshold (ethr) on eigenvalues was too large:
     Diagonalizing with lowered threshold

     Davidson diagonalization with overlap
     ethr =  5.29E-13,  avg # of iterations =  4.2

[...]

     Total force =     0.000013     Total SCF correction =     0.000002
     SCF correction compared to forces is large: reduce conv_thr to get better values

[...]

     bfgs converged in  15 scf cycles and  14 bfgs steps
     (criteria: energy <  1.0E-10 Ry, force <  1.0E-05Ry/Bohr, cell <  1.0E-03kbar)

     End of BFGS Geometry Optimization

     Final enthalpy =    -588.3809064614 Ry
Begin final coordinates
     new unit-cell volume =    604.22781 a.u.^3 (    89.53732 Ang^3 )
     density =      7.77981 g/cm^3

CELL_PARAMETERS (alat=  1.88972599)
  -1.652992180  -4.937111753  -1.645703918
  -1.652992180   4.937111753   1.645703918
   1.652992180   1.645703918  -4.937111753

ATOMIC_POSITIONS (angstrom)
Ti      -1.652992180   1.645703918  -4.937111753
Nb      -1.652992180   1.656194183  -1.697247488
Nb      -1.652992180  -1.697247488  -1.656194183
Nb       0.000000000   3.342951406  -3.280917570
Nb       0.000000000  -0.010490265  -3.239864265
End final coordinates

     A final scf calculation at the relaxed structure.
     The G-vectors are recalculated for the final unit cell
     Results may differ from those at the preceding step.

     bravais-lattice index     =            0
     lattice parameter (alat)  =       1.8897  a.u.
     unit-cell volume          =     604.2278 (a.u.)^3
     number of atoms/cell      =            5
     number of atomic types    =            2
     number of electrons       =        64.00
     number of Kohn-Sham states=           38
     kinetic-energy cutoff     =      50.0000  Ry
     charge density cutoff     =     500.0000  Ry
     convergence threshold     =      1.0E-12
     mixing beta               =       0.6000
     number of iterations used =            8  plain     mixing
     Exchange-correlation      = SLA PW PBE PBE ( 1  4  3  4 0 0)

     celldm(1)=   1.889726  celldm(2)=   0.000000  celldm(3)=   0.000000
     celldm(4)=   0.000000  celldm(5)=   0.000000  celldm(6)=   0.000000

     crystal axes: (cart. coord. in units of alat)
               a(1) = (  -1.652992  -4.937112  -1.645704 )
               a(2) = (  -1.652992   4.937112   1.645704 )
               a(3) = (   1.652992   1.645704  -4.937112 )

     reciprocal axes: (cart. coord. in units 2 pi/alat)
               b(1) = ( -0.302482 -0.060764 -0.121529 )
               b(2) = ( -0.302482  0.121529 -0.060764 )
               b(3) = (  0.000000  0.060764 -0.182293 )

     PseudoPot. # 1 for Nb read from file:
     ./Nb.pbe-nsp-van.UPF
     MD5 check sum: 0a22fc7fb0ba19a08ca5db297a5d2854
     Pseudo is Ultrasoft + core correction, Zval = 13.0
     Generated by new atomic code, or converted to UPF format
     Using radial grid of  887 points,  6 beta functions with:
                l(1) =   0
                l(2) =   0
                l(3) =   1
                l(4) =   1
                l(5) =   2
                l(6) =   2
     Q(r) pseudized with  6 coefficients,  rinner =    1.000   1.000   1.000
                                                       1.000   1.000

     PseudoPot. # 2 for Ti read from file:
     ./Ti.pbe-sp-van_ak.UPF
     MD5 check sum: f98fea3e8887528921fefa5636a534ca
     Pseudo is Ultrasoft, Zval = 12.0
     Generated by new atomic code, or converted to UPF format
     Using radial grid of  851 points,  6 beta functions with:
                l(1) =   0
                l(2) =   0
                l(3) =   1
                l(4) =   1
                l(5) =   2
                l(6) =   2
     Q(r) pseudized with  8 coefficients,  rinner =    1.000   1.000   1.000
                                                       1.000   1.000

     atomic species   valence    mass     pseudopotential
        Nb            13.00    92.90638     Nb( 1.00)
        Ti            12.00    47.86700     Ti( 1.00)

      8 Sym. Ops., with inversion, found

   Cartesian axes

     site n.     atom                  positions (alat units)
         1           Ti  tau(   1) = (  -1.6529923   1.6457040  -4.9371121  )
         2           Nb  tau(   2) = (  -1.6529923   1.6561943  -1.6972476  )
         3           Nb  tau(   3) = (  -1.6529923  -1.6972476  -1.6561943  )
         4           Nb  tau(   4) = (   0.0000000   3.3429517  -3.2809178  )
         5           Nb  tau(   5) = (   0.0000000  -0.0104903  -3.2398645  )

     number of k points=   242  Marzari-Vanderbilt smearing, width (Ry)=  0.0200

     Number of k-points >= 100: set verbosity='high' to print them.

     Initial potential from superposition of free atoms

     starting charge   62.98902, renormalised to   64.00000
     Starting wfcs are   62 randomized atomic wfcs

     Self-consistent Calculation

[...]

     total energy              =    -588.38027438 Ry
     Harris-Foulkes estimate   =    -588.38027438 Ry
     estimated scf accuracy    <          6.1E-12 Ry

     iteration # 25     ecut=    50.00 Ry     beta= 0.60
     Davidson diagonalization with overlap
     ethr =  1.00E-13,  avg # of iterations =  1.0

     End of self-consistent calculation

     Number of k-points >= 100: set verbosity='high' to print the bands.

     the Fermi energy is    17.0184 ev

!    total energy              =    -588.38027438 Ry
     Harris-Foulkes estimate   =    -588.38027438 Ry
     estimated scf accuracy    <          3.0E-13 Ry

     The total energy is the sum of the following terms:

     one-electron contribution =    -106.04768463 Ry
     hartree contribution      =      84.51259726 Ry
     xc contribution           =     -88.30519327 Ry
     ewald contribution        =    -478.53939163 Ry
     smearing contrib. (-TS)   =      -0.00060210 Ry

     convergence has been achieved in  25 iterations

     Forces acting on atoms (cartesian axes, Ry/au):

     atom    1 type  2   force =     0.00000000    0.00000000   -0.00000000
     atom    2 type  1   force =     0.00000000    0.00001432   -0.00000706
     atom    3 type  1   force =     0.00000000   -0.00000706   -0.00001432
     atom    4 type  1   force =    -0.00000000    0.00000706    0.00001432
     atom    5 type  1   force =    -0.00000000   -0.00001432    0.00000706

     Total force =     0.000032     Total SCF correction =     0.000001

     Computing stress (Cartesian axis) and pressure

          total   stress  (Ry/bohr**3)                   (kbar)     P=   -1.44
  -0.00000958  -0.00000000   0.00000000         -1.41     -0.00      0.00
  -0.00000000  -0.00000986   0.00000000         -0.00     -1.45      0.00
   0.00000000  -0.00000000  -0.00000986          0.00     -0.00     -1.45

     General routines

     Parallel routines

      29h

   This run was terminated on:  22:37:41  24Feb2020

   JOB DONE.