     Program PWSCF v.6.3MaX starts on  4Feb2020 at  9:25:59

     R & G space division:  proc/nbgrp/npool/nimage =       4
     Waiting for input...
     Reading input from standard input

     Current dimensions of program PWSCF are:
     Max number of different atomic species (ntypx) = 10
     Max number of k-points (npk) =  40000
     Max angular momentum in pseudopotentials (lmaxx) =  3
     Message from routine iosys:
     minimal I/O required, wf_collect reset to FALSE

     Subspace diagonalization in iterative solution of the eigenvalue problem:
     a serial algorithm will be used

     bravais-lattice index     =            0
     lattice parameter (alat)  =       1.8897  a.u.
     unit-cell volume          =     586.6735 (a.u.)^3
     number of atoms/cell      =            4
     number of atomic types    =            2
     number of electrons       =        49.00
     number of Kohn-Sham states=           30
     kinetic-energy cutoff     =      50.0000  Ry
     charge density cutoff     =     500.0000  Ry
     convergence threshold     =      1.0E-10
     mixing beta               =       0.6000
     number of iterations used =            8  plain     mixing
     Exchange-correlation      = SLA PW PBE PBE ( 1  4  3  4 0 0)
     nstep                     =           50

     celldm(1)=   1.889726  celldm(2)=   0.000000  celldm(3)=   0.000000
     celldm(4)=   0.000000  celldm(5)=   0.000000  celldm(6)=   0.000000

     crystal axes: (cart. coord. in units of alat)
               a(1) = (   0.000000  -3.516063   3.516063 )
               a(2) = (   0.000000   3.516063   3.516063 )
               a(3) = (  -3.516063   0.000000   0.000000 )

     reciprocal axes: (cart. coord. in units 2 pi/alat)
               b(1) = (  0.000000 -0.142205  0.142205 )
               b(2) = (  0.000000  0.142205  0.142205 )
               b(3) = ( -0.284409  0.000000  0.000000 )

     PseudoPot. # 1 for Nb read from file:
     ./Nb.pbe-nsp-van.UPF
     MD5 check sum: 0a22fc7fb0ba19a08ca5db297a5d2854
     Pseudo is Ultrasoft + core correction, Zval = 13.0
     Generated by new atomic code, or converted to UPF format
     Using radial grid of  887 points,  6 beta functions with:
                l(1) =   0
                l(2) =   0
                l(3) =   1
                l(4) =   1
                l(5) =   2
                l(6) =   2
     Q(r) pseudized with  6 coefficients,  rinner =    1.000   1.000   1.000
                                                       1.000   1.000

     PseudoPot. # 2 for Ti read from file:
     ./Ti.pbe-sp-van_ak.UPF
     MD5 check sum: f98fea3e8887528921fefa5636a534ca
     Pseudo is Ultrasoft, Zval = 12.0
     Generated by new atomic code, or converted to UPF format
     Using radial grid of  851 points,  6 beta functions with:
                l(1) =   0
                l(2) =   0
                l(3) =   1
                l(4) =   1
                l(5) =   2
                l(6) =   2
     Q(r) pseudized with  8 coefficients,  rinner =    1.000   1.000   1.000
                                                       1.000   1.000

     atomic species   valence    mass     pseudopotential
        Nb            13.00    92.90638     Nb( 1.00)
        Ti            12.00    47.86700     Ti( 1.00)

     16 Sym. Ops., with inversion, found ( 8 have fractional translation)

   Cartesian axes

     site n.     atom                  positions (alat units)
         1           Ti  tau(   1) = (  -3.5160633   0.0000000   3.5160633  )
         2           Ti  tau(   2) = (  -1.7580316  -1.7580316   5.2740949  )
         3           Ti  tau(   3) = (  -3.5160633   0.0000000   7.0321265  )
         4           Nb  tau(   4) = (  -1.7580316   1.7580316   5.2740949  )

     number of k points=   252  Marzari-Vanderbilt smearing, width (Ry)=  0.0200

     Number of k-points >= 100: set verbosity='high' to print them.

     Initial potential from superposition of free atoms

     starting charge   45.99713, renormalised to   49.00000
     Starting wfcs are   43 randomized atomic wfcs

     Self-consistent Calculation

     iteration #  1     ecut=    50.00 Ry     beta= 0.60
     Davidson diagonalization with overlap
     ethr =  1.00E-02,  avg # of iterations =  3.8

     total energy              =    -463.54264972 Ry
     Harris-Foulkes estimate   =    -469.19516179 Ry
     estimated scf accuracy    <       7.30930755 Ry

[...]

     iteration # 13     ecut=    50.00 Ry     beta= 0.60
     Davidson diagonalization with overlap
     c_bands:  1 eigenvalues not converged
     ethr =  1.73E-04,  avg # of iterations =  4.4

[...]

     End of self-consistent calculation

     Number of k-points >= 100: set verbosity='high' to print the bands.

     the Fermi energy is    11.0663 ev

!    total energy              =    -467.78060049 Ry
     Harris-Foulkes estimate   =    -467.78060049 Ry
     estimated scf accuracy    <          3.5E-11 Ry

     The total energy is the sum of the following terms:

     one-electron contribution =    -177.26739032 Ry
     hartree contribution      =      99.81921527 Ry
     xc contribution           =     -61.37699107 Ry
     ewald contribution        =    -328.95375818 Ry
     smearing contrib. (-TS)   =      -0.00167619 Ry

     convergence has been achieved in  40 iterations

     Forces acting on atoms (cartesian axes, Ry/au):

     atom    1 type  2   force =     0.00000000    0.00000000    0.00000000
     atom    2 type  2   force =     0.00000000    0.00000000    0.00000000
     atom    3 type  2   force =     0.00000000    0.00000000    0.00000000
     atom    4 type  1   force =     0.00000000   -0.00000000    0.00000000

     Total force =     0.000000     Total SCF correction =     0.000000

     Computing stress (Cartesian axis) and pressure

          total   stress  (Ry/bohr**3)                   (kbar)     P= -184.61
  -0.00123502   0.00000000   0.00000000       -181.68      0.00      0.00
   0.00000000  -0.00126497   0.00000000          0.00   -186.08      0.00
   0.00000000   0.00000000  -0.00126497          0.00      0.00   -186.08

     BFGS Geometry Optimization

     number of scf cycles    =   1
     number of bfgs steps    =   0

     enthalpy new            =    -467.7806004932 Ry

     new trust radius        =       0.1531960575 bohr
     new conv_thr            =            1.0E-10 Ry

     new unit-cell volume =    533.16784 a.u.^3 (    79.00732 Ang^3 )
     density =      4.97080 g/cm^3

CELL_PARAMETERS (alat=  1.88972599)
   0.000000000  -3.404870365   3.404870365
   0.000000000   3.404870365   3.404870365
  -3.407503231   0.000000000   0.000000000

ATOMIC_POSITIONS (angstrom)
Ti      -3.407503231   0.000000000   3.404870365
Ti      -1.703751615  -1.702435182   5.107305547
Ti      -3.407503231   0.000000000   6.809740730
Nb      -1.703751615   1.702435182   5.107305547

     NEW-OLD atomic charge density approx. for the potential
     extrapolated charge   44.38399, renormalised to   49.00000

[...]

     enthalpy old            =    -467.7806004932 Ry
     enthalpy new            =    -467.8383583934 Ry

     CASE: enthalpy_new < enthalpy_old

[...]

     Threshold (ethr) on eigenvalues was too large:
     Diagonalizing with lowered threshold

     Davidson diagonalization with overlap
     ethr =  2.21E-08,  avg # of iterations =  3.3

[...]

     CASE: enthalpy_new < enthalpy_old

     small trust_radius: resetting bfgs history

     new trust radius        =       0.0000063491 bohr
     new conv_thr            =            1.0E-12 Ry

[...]

     NEW-OLD atomic charge density approx. for the potential
     extrapolated charge   49.00014, renormalised to   49.00000

[...]

     number of scf cycles    =  16
     number of bfgs steps    =  15

     enthalpy old            =    -467.8706002345 Ry
     enthalpy new            =    -467.8706002345 Ry

     CASE: enthalpy_new > enthalpy_old

     new trust radius        =       0.0000017598 bohr

     trust_radius < trust_radius_min

     resetting bfgs history

     Message from routine bfgs:
     history already reset at previous step: stopping
     new conv_thr            =            1.0E-12 Ry

     new unit-cell volume =    466.52875 a.u.^3 (    69.13243 Ang^3 )
     density =      5.68083 g/cm^3

[...]

ATOMIC_POSITIONS (angstrom)
Ti      -3.307522392   0.000000000   3.232768134
Ti      -1.653761196  -1.616384067   4.849152201
Ti      -3.307522392  -0.000000000   6.465536267
Nb      -1.653761196   1.616384067   4.849152201

     NEW-OLD atomic charge density approx. for the potential

[...]

     Threshold (ethr) on eigenvalues was too large:
     Diagonalizing with lowered threshold

     Davidson diagonalization with overlap
     ethr =  3.90E-14,  avg # of iterations =  2.1

[...]

     bfgs converged in  17 scf cycles and  15 bfgs steps
     (criteria: energy <  1.0E-10 Ry, force <  1.0E-05Ry/Bohr, cell <  1.0E-03kbar)

     End of BFGS Geometry Optimization

     Final enthalpy =    -467.8706002345 Ry
Begin final coordinates
     new unit-cell volume =    466.52875 a.u.^3 (    69.13243 Ang^3 )
     density =      5.68083 g/cm^3

CELL_PARAMETERS (alat=  1.88972599)
   0.000000000  -3.232768134   3.232768134
   0.000000000   3.232768134   3.232768134
  -3.307522392   0.000000000   0.000000000

ATOMIC_POSITIONS (angstrom)
Ti      -3.307522392   0.000000000   3.232768134
Ti      -1.653761196  -1.616384067   4.849152201
Ti      -3.307522392  -0.000000000   6.465536267
Nb      -1.653761196   1.616384067   4.849152201
End final coordinates

     A final scf calculation at the relaxed structure.
     The G-vectors are recalculated for the final unit cell
     Results may differ from those at the preceding step.

     bravais-lattice index     =            0
     lattice parameter (alat)  =       1.8897  a.u.
     unit-cell volume          =     466.5287 (a.u.)^3
     number of atoms/cell      =            4
     number of atomic types    =            2
     number of electrons       =        49.00
     number of Kohn-Sham states=           30
     kinetic-energy cutoff     =      50.0000  Ry
     charge density cutoff     =     500.0000  Ry
     convergence threshold     =      1.0E-12
     mixing beta               =       0.6000
     number of iterations used =            8  plain     mixing
     Exchange-correlation      = SLA PW PBE PBE ( 1  4  3  4 0 0)

     celldm(1)=   1.889726  celldm(2)=   0.000000  celldm(3)=   0.000000
     celldm(4)=   0.000000  celldm(5)=   0.000000  celldm(6)=   0.000000

     crystal axes: (cart. coord. in units of alat)
               a(1) = (   0.000000  -3.232768   3.232768 )
               a(2) = (   0.000000   3.232768   3.232768 )
               a(3) = (  -3.307522   0.000000   0.000000 )

     reciprocal axes: (cart. coord. in units 2 pi/alat)
               b(1) = (  0.000000 -0.154666  0.154666 )
               b(2) = (  0.000000  0.154666  0.154666 )
               b(3) = ( -0.302341  0.000000  0.000000 )

     PseudoPot. # 1 for Nb read from file:
     ./Nb.pbe-nsp-van.UPF
     MD5 check sum: 0a22fc7fb0ba19a08ca5db297a5d2854
     Pseudo is Ultrasoft + core correction, Zval = 13.0
     Generated by new atomic code, or converted to UPF format
     Using radial grid of  887 points,  6 beta functions with:
                l(1) =   0
                l(2) =   0
                l(3) =   1
                l(4) =   1
                l(5) =   2
                l(6) =   2
     Q(r) pseudized with  6 coefficients,  rinner =    1.000   1.000   1.000
                                                       1.000   1.000

     PseudoPot. # 2 for Ti read from file:
     ./Ti.pbe-sp-van_ak.UPF
     MD5 check sum: f98fea3e8887528921fefa5636a534ca
     Pseudo is Ultrasoft, Zval = 12.0
     Generated by new atomic code, or converted to UPF format
     Using radial grid of  851 points,  6 beta functions with:
                l(1) =   0
                l(2) =   0
                l(3) =   1
                l(4) =   1
                l(5) =   2
                l(6) =   2
     Q(r) pseudized with  8 coefficients,  rinner =    1.000   1.000   1.000
                                                       1.000   1.000

     atomic species   valence    mass     pseudopotential
        Nb            13.00    92.90638     Nb( 1.00)
        Ti            12.00    47.86700     Ti( 1.00)

     16 Sym. Ops., with inversion, found ( 8 have fractional translation)

   Cartesian axes

     site n.     atom                  positions (alat units)
         1           Ti  tau(   1) = (  -3.3075226   0.0000000   3.2327684  )
         2           Ti  tau(   2) = (  -1.6537613  -1.6163842   4.8491526  )
         3           Ti  tau(   3) = (  -3.3075226  -0.0000000   6.4655368  )
         4           Nb  tau(   4) = (  -1.6537613   1.6163842   4.8491526  )

     number of k points=   252  Marzari-Vanderbilt smearing, width (Ry)=  0.0200

     Number of k-points >= 100: set verbosity='high' to print them.

     Initial potential from superposition of free atoms

     starting charge   45.99713, renormalised to   49.00000
     Starting wfcs are   43 randomized atomic wfcs

     Self-consistent Calculation

[...]

     iteration # 37     ecut=    50.00 Ry     beta= 0.60
     Davidson diagonalization with overlap
     c_bands:  1 eigenvalues not converged
     ethr =  9.93E-10,  avg # of iterations =  2.8

[...]

     total energy              =    -467.87015495 Ry
     Harris-Foulkes estimate   =    -467.87015495 Ry
     estimated scf accuracy    <          5.6E-12 Ry

     iteration # 49     ecut=    50.00 Ry     beta= 0.60
     Davidson diagonalization with overlap
     ethr =  1.00E-13,  avg # of iterations =  1.7

     End of self-consistent calculation

     Number of k-points >= 100: set verbosity='high' to print the bands.

     the Fermi energy is    14.6081 ev

!    total energy              =    -467.87015495 Ry
     Harris-Foulkes estimate   =    -467.87015495 Ry
     estimated scf accuracy    <          2.2E-13 Ry

     The total energy is the sum of the following terms:

     one-electron contribution =    -138.40740214 Ry
     hartree contribution      =      87.67869557 Ry
     xc contribution           =     -62.07693166 Ry
     ewald contribution        =    -355.06372157 Ry
     smearing contrib. (-TS)   =      -0.00079515 Ry

     convergence has been achieved in  49 iterations

     Forces acting on atoms (cartesian axes, Ry/au):

     atom    1 type  2   force =     0.00000000    0.00000000    0.00000000
     atom    2 type  2   force =     0.00000000    0.00000000    0.00000000
     atom    3 type  2   force =     0.00000000    0.00000000    0.00000000
     atom    4 type  1   force =     0.00000000   -0.00000000   -0.00000000

     Total force =     0.000000     Total SCF correction =     0.000000

     Computing stress (Cartesian axis) and pressure

          total   stress  (Ry/bohr**3)                   (kbar)     P=   -0.18
  -0.00000225   0.00000000   0.00000000         -0.33      0.00      0.00
   0.00000000  -0.00000075   0.00000000          0.00     -0.11      0.00
   0.00000000   0.00000000  -0.00000075          0.00      0.00     -0.11

     General routines

     Parallel routines

      51h

   This run was terminated on:  11:17:36   4Feb2020

   JOB DONE.