     Program PWSCF v.6.3MaX starts on 24Jan2020 at 12:12:38

     R & G space division:  proc/nbgrp/npool/nimage =       4
     Waiting for input...
     Reading input from standard input

     Current dimensions of program PWSCF are:
     Max number of different atomic species (ntypx) = 10
     Max number of k-points (npk) =  40000
     Max angular momentum in pseudopotentials (lmaxx) =  3
     Message from routine iosys:
     minimal I/O required, wf_collect reset to FALSE

     Subspace diagonalization in iterative solution of the eigenvalue problem:
     a serial algorithm will be used

     bravais-lattice index     =            0
     lattice parameter (alat)  =       1.8897  a.u.
     unit-cell volume          =     733.3418 (a.u.)^3
     number of atoms/cell      =            5
     number of atomic types    =            2
     number of electrons       =        61.00
     number of Kohn-Sham states=           37
     kinetic-energy cutoff     =      50.0000  Ry
     charge density cutoff     =     500.0000  Ry
     convergence threshold     =      1.0E-10
     mixing beta               =       0.6000
     number of iterations used =            8  plain     mixing
     Exchange-correlation      = SLA PW PBE PBE ( 1  4  3  4 0 0)
     nstep                     =           50

     celldm(1)=   1.889726  celldm(2)=   0.000000  celldm(3)=   0.000000
     celldm(4)=   0.000000  celldm(5)=   0.000000  celldm(6)=   0.000000

     crystal axes: (cart. coord. in units of alat)
               a(1) = (  -1.758031  -5.274095  -1.758031 )
               a(2) = (  -1.758031   5.274095   1.758031 )
               a(3) = (   1.758031   1.758031  -5.274095 )

     reciprocal axes: (cart. coord. in units 2 pi/alat)
               b(1) = ( -0.284409 -0.056882 -0.113764 )
               b(2) = ( -0.284409  0.113764 -0.056882 )
               b(3) = (  0.000000  0.056882 -0.170645 )

     PseudoPot. # 1 for Nb read from file:
     ./Nb.pbe-nsp-van.UPF
     MD5 check sum: 0a22fc7fb0ba19a08ca5db297a5d2854
     Pseudo is Ultrasoft + core correction, Zval = 13.0
     Generated by new atomic code, or converted to UPF format
     Using radial grid of  887 points,  6 beta functions with:
                l(1) =   0
                l(2) =   0
                l(3) =   1
                l(4) =   1
                l(5) =   2
                l(6) =   2
     Q(r) pseudized with  6 coefficients,  rinner =    1.000   1.000   1.000
                                                       1.000   1.000

     PseudoPot. # 2 for Ti read from file:
     ./Ti.pbe-sp-van_ak.UPF
     MD5 check sum: f98fea3e8887528921fefa5636a534ca
     Pseudo is Ultrasoft, Zval = 12.0
     Generated by new atomic code, or converted to UPF format
     Using radial grid of  851 points,  6 beta functions with:
                l(1) =   0
                l(2) =   0
                l(3) =   1
                l(4) =   1
                l(5) =   2
                l(6) =   2
     Q(r) pseudized with  8 coefficients,  rinner =    1.000   1.000   1.000
                                                       1.000   1.000

     atomic species   valence    mass     pseudopotential
        Nb            13.00    92.90638     Nb( 1.00)
        Ti            12.00    47.86700     Ti( 1.00)

      2 Sym. Ops. (no inversion) found

   Cartesian axes

     site n.     atom                  positions (alat units)
         1           Ti  tau(   1) = (  -1.7580316   1.7580316  -5.2740949  )
         2           Ti  tau(   2) = (  -1.7580316   1.7580316  -1.7580316  )
         3           Ti  tau(   3) = (  -1.7580316  -1.7580316  -1.7580316  )
         4           Ti  tau(   4) = (   0.0000000   3.5160633  -3.5160633  )
         5           Nb  tau(   5) = (   0.0000000   0.0000000  -3.5160633  )

     number of k points=   476  Marzari-Vanderbilt smearing, width (Ry)=  0.0200

     Number of k-points >= 100: set verbosity='high' to print them.

     Initial potential from superposition of free atoms

     starting charge   56.99709, renormalised to   61.00000
     Starting wfcs are   53 randomized atomic wfcs

     Self-consistent Calculation

     iteration #  1     ecut=    50.00 Ry     beta= 0.60
     Davidson diagonalization with overlap
     ethr =  1.00E-02,  avg # of iterations =  4.0

     total energy              =    -580.58818220 Ry
     Harris-Foulkes estimate   =    -586.23138274 Ry
     estimated scf accuracy    <       7.37520420 Ry

[...]

     iteration # 11     ecut=    50.00 Ry     beta= 0.60
     Davidson diagonalization with overlap
     c_bands:  1 eigenvalues not converged
     ethr =  3.47E-06,  avg # of iterations =  7.9

[...]

     End of self-consistent calculation

     Number of k-points >= 100: set verbosity='high' to print the bands.

     the Fermi energy is    10.8475 ev

!    total energy              =    -584.40614287 Ry
     Harris-Foulkes estimate   =    -584.40614287 Ry
     estimated scf accuracy    <          3.1E-11 Ry

     The total energy is the sum of the following terms:

     one-electron contribution =    -228.20711967 Ry
     hartree contribution      =     127.34851027 Ry
     xc contribution           =     -75.75392263 Ry
     ewald contribution        =    -407.79128439 Ry
     smearing contrib. (-TS)   =      -0.00232644 Ry

     convergence has been achieved in  28 iterations

     Forces acting on atoms (cartesian axes, Ry/au):

     atom    1 type  2   force =     0.00000000   -0.01154183    0.00901480
     atom    2 type  2   force =     0.00000000   -0.00901475   -0.01154246
     atom    3 type  2   force =     0.00000000    0.01154226   -0.00901440
     atom    4 type  2   force =     0.00000000    0.00901417    0.01154199
     atom    5 type  1   force =     0.00000000    0.00000015    0.00000006

     Total force =     0.029290     Total SCF correction =     0.000008

     Computing stress (Cartesian axis) and pressure

          total   stress  (Ry/bohr**3)                   (kbar)     P= -180.50
  -0.00120466  -0.00000000  -0.00000000       -177.21     -0.00     -0.00
   0.00000000  -0.00123819   0.00000000          0.00   -182.14      0.00
  -0.00000000   0.00000000  -0.00123819         -0.00      0.00   -182.14

     BFGS Geometry Optimization

     number of scf cycles    =   1
     number of bfgs steps    =   0

     enthalpy new            =    -584.4061428666 Ry

     new trust radius        =       0.1676527360 bohr
     new conv_thr            =            1.0E-10 Ry

     new unit-cell volume =    667.90419 a.u.^3 (    98.97319 Ang^3 )
     density =      4.77114 g/cm^3

CELL_PARAMETERS (alat=  1.88972599)
  -1.705085824  -5.110836280  -1.703612084
  -1.705085824   5.110836280   1.703612084
   1.705085824   1.703612065  -5.110836168

ATOMIC_POSITIONS (angstrom)
Ti      -1.705085824   1.697693455  -5.106213407
Ti      -1.705085824   1.698989346  -1.709530986
Ti      -1.705085824  -1.697693266  -1.708234621
Ti       0.000000000   3.411846600  -3.401305407
Nb       0.000000000   0.000000062  -3.407224085

     NEW-OLD atomic charge density approx. for the potential
     extrapolated charge   55.41573, renormalised to   61.00000

[...]

     enthalpy old            =    -584.4061428666 Ry
     enthalpy new            =    -584.4763066485 Ry

     CASE: enthalpy_new < enthalpy_old

[...]

     iteration #  8     ecut=    50.00 Ry     beta= 0.60
     Davidson diagonalization with overlap
     c_bands:  1 eigenvalues not converged
     ethr =  9.92E-10,  avg # of iterations =  3.4

[...]

     CASE: enthalpy_new < enthalpy_old

[...]

     CASE: enthalpy_new > enthalpy_old

[...]

     Threshold (ethr) on eigenvalues was too large:
     Diagonalizing with lowered threshold

     Davidson diagonalization with overlap
     ethr =  1.85E-08,  avg # of iterations =  1.9

[...]

     new trust radius        =       0.0000549218 bohr

     trust_radius < trust_radius_min

     resetting bfgs history

     new conv_thr            =            5.9E-11 Ry

[...]

     new trust radius        =       0.0002425057 bohr
     new conv_thr            =            5.9E-11 Ry

[...]

     Self-consistent Calculation

[...]

     Threshold (ethr) on eigenvalues was too large:
     Diagonalizing with lowered threshold

     Davidson diagonalization with overlap
     ethr =  2.62E-08,  avg # of iterations =  2.0

[...]

     total energy              =    -584.51998942 Ry
     Harris-Foulkes estimate   =    -584.51998942 Ry
     estimated scf accuracy    <          7.7E-11 Ry

     iteration # 15     ecut=    50.00 Ry     beta= 0.60
     Davidson diagonalization with overlap
     ethr =  1.22E-13,  avg # of iterations =  1.1

     End of self-consistent calculation

     Number of k-points >= 100: set verbosity='high' to print the bands.

     the Fermi energy is    14.2541 ev

!    total energy              =    -584.51998942 Ry
     Harris-Foulkes estimate   =    -584.51998942 Ry
     estimated scf accuracy    <          2.8E-11 Ry

     The total energy is the sum of the following terms:

     one-electron contribution =    -181.73790155 Ry
     hartree contribution      =     112.93077531 Ry
     xc contribution           =     -76.61831395 Ry
     ewald contribution        =    -439.09384048 Ry
     smearing contrib. (-TS)   =      -0.00070874 Ry

     convergence has been achieved in  15 iterations

     Forces acting on atoms (cartesian axes, Ry/au):

     atom    1 type  2   force =    -0.00000000   -0.00057257   -0.00053042
     atom    2 type  2   force =     0.00000000    0.00052989   -0.00057209
     atom    3 type  2   force =     0.00000000    0.00057247    0.00053009
     atom    4 type  2   force =    -0.00000000   -0.00052977    0.00057262
     atom    5 type  1   force =    -0.00000000   -0.00000002   -0.00000020

     Total force =     0.001560     Total SCF correction =     0.000017

     Computing stress (Cartesian axis) and pressure

          total   stress  (Ry/bohr**3)                   (kbar)     P=    0.52
   0.00000873  -0.00000000  -0.00000000          1.28     -0.00     -0.00
  -0.00000000   0.00000093  -0.00000002         -0.00      0.14     -0.00
  -0.00000000  -0.00000002   0.00000089         -0.00     -0.00      0.13

     number of scf cycles    =  50
     number of bfgs steps    =  15

     enthalpy old            =    -584.5199906759 Ry
     enthalpy new            =    -584.5199894215 Ry

     CASE: enthalpy_new > enthalpy_old

     new trust radius        =       0.0000486360 bohr

     trust_radius < trust_radius_min

     resetting bfgs history

     new conv_thr            =            5.9E-11 Ry

     new unit-cell volume =    585.06602 a.u.^3 (    86.69784 Ang^3 )
     density =      5.44667 g/cm^3

CELL_PARAMETERS (alat=  1.88972599)
  -1.670167738  -4.833152053  -1.611048400
  -1.670167738   4.833152053   1.611048400
   1.670167738   1.611052492  -4.833150624

ATOMIC_POSITIONS (angstrom)
Ti      -1.670167738   1.574155169  -4.776727401
Ti      -1.670167738   1.554629016  -1.647947414
Ti      -1.670167738  -1.574151641  -1.667471747
Ti      -0.000000000   3.278524224  -3.185205335
Nb      -0.000000000   0.000000707  -3.222099974

     NEW-OLD atomic charge density approx. for the potential
     extrapolated charge   61.01333, renormalised to   61.00000

     General routines

     Parallel routines

      55h

   This run was terminated on:   5: 7:41  25Jan2020

   JOB DONE.