     Program PWSCF v.6.0 (svn rev. 13079) starts on 25Apr2018 at 16: 9: 8

     Current dimensions of program PWSCF are:
     Max number of different atomic species (ntypx) = 10
     Max number of k-points (npk) =  40000
     Max angular momentum in pseudopotentials (lmaxx) =  3

     Subspace diagonalization in iterative solution of the eigenvalue problem:
     a serial algorithm will be used

     bravais-lattice index     =            0
     lattice parameter (alat)  =       1.8897  a.u.
     unit-cell volume          =     269.4476 (a.u.)^3
     number of atoms/cell      =            2
     number of atomic types    =            1
     number of electrons       =        24.00
     number of Kohn-Sham states=           16
     kinetic-energy cutoff     =      40.0000  Ry
     charge density cutoff     =     400.0000  Ry
     convergence threshold     =      1.0E-10
     mixing beta               =       0.6000
     number of iterations used =            8  plain     mixing
     Exchange-correlation      = SLA  PW   PBE  PBE ( 1  4  3  4 0 0)
     nstep                     =           50

     celldm(1)=   1.889726  celldm(2)=   0.000000  celldm(3)=   0.000000
     celldm(4)=   0.000000  celldm(5)=   0.000000  celldm(6)=   0.000000

     crystal axes: (cart. coord. in units of alat)
               a(1) = (   3.045004   0.000000   0.000000 )
               a(2) = (  -1.522502   2.637051   0.000000 )
               a(3) = (   0.000000   0.000000   4.972461 )

     reciprocal axes: (cart. coord. in units 2 pi/alat)
               b(1) = (  0.328407  0.189606 -0.000000 )
               b(2) = (  0.000000  0.379211  0.000000 )
               b(3) = (  0.000000 -0.000000  0.201108 )

     PseudoPot. # 1 for Ti read from file:
     ./Ti.pbe-sp-van_ak.UPF
     MD5 check sum: f98fea3e8887528921fefa5636a534ca
     Pseudo is Ultrasoft, Zval = 12.0
     Generated by new atomic code, or converted to UPF format
     Using radial grid of  851 points,  6 beta functions with:
                l(1) =   0
                l(2) =   0
                l(3) =   1
                l(4) =   1
                l(5) =   2
                l(6) =   2
     Q(r) pseudized with  8 coefficients,  rinner =    1.000   1.000   1.000
                                                       1.000   1.000

     atomic species   valence    mass     pseudopotential
        Ti            12.00    47.86700     Ti( 1.00)

     12 Sym. Ops. (no inversion) found
          (note: 12 additional sym.ops. were found but ignored
           their fractional translations are incommensurate with FFT grid)

   Cartesian axes

     site n.     atom                  positions (alat units)
         1           Ti  tau(   1) = (   1.5225021   2.6370512   4.9724614  )
         2           Ti  tau(   2) = (   1.5225036   0.8790162   2.4862307  )

     number of k points=   280  Marzari-Vanderbilt smearing, width (Ry)=  0.0200

     Number of k-points >= 100: set verbosity='high' to print them.

     Initial potential from superposition of free atoms

     starting charge   21.99991, renormalised to   24.00000
     Starting wfc are   20 randomized atomic wfcs

     Self-consistent Calculation

     iteration #  1     ecut=    40.00 Ry     beta=0.60
     Davidson diagonalization with overlap
     ethr =  1.00E-02,  avg # of iterations =  3.8

     total energy              =    -232.76058184 Ry
     Harris-Foulkes estimate   =    -233.85214473 Ry
     estimated scf accuracy    <       1.52199903 Ry

[...]

     End of self-consistent calculation

     Number of k-points >= 100: set verbosity='high' to print the bands.

     the Fermi energy is    11.2628 ev

!    total energy              =    -233.28673572 Ry
     Harris-Foulkes estimate   =    -233.28673572 Ry
     estimated scf accuracy    <          6.1E-11 Ry

     The total energy is the sum of the following terms:

     one-electron contribution =     -94.83884135 Ry
     hartree contribution      =      52.65109857 Ry
     xc contribution           =     -28.84413755 Ry
     ewald contribution        =    -162.25576153 Ry
     smearing contrib. (-TS)   =       0.00090615 Ry

     convergence has been achieved in  12 iterations

     Forces acting on atoms (Ry/au):

     atom    1 type  1   force =     0.00000000    0.00000000    0.00000000
     atom    2 type  1   force =     0.00000000    0.00000000    0.00000000

     Total force =     0.000000     Total SCF correction =     0.000000

     entering subroutine stress ...

          total   stress  (Ry/bohr**3)                   (kbar)     P= -136.09
  -0.00085779  -0.00000000   0.00000000       -126.19     -0.00      0.00
  -0.00000000  -0.00085779   0.00000000         -0.00   -126.19      0.00
   0.00000000   0.00000000  -0.00105977          0.00      0.00   -155.90

     BFGS Geometry Optimization

     number of scf cycles    =   1
     number of bfgs steps    =   0

     enthalpy new            =    -233.2867357157 Ry

     new trust radius        =       0.0869801434 bohr
     new conv_thr            =            1.0E-10 Ry

     new unit-cell volume =    251.17906 a.u.^3 (    37.22090 Ang^3 )

CELL_PARAMETERS (alat=  1.88972599)
   2.979704468  -0.000000000   0.000000000
  -1.489852234   2.580499950   0.000000000
   0.000000000   0.000000000   4.840718965

ATOMIC_POSITIONS (angstrom)
Ti       1.489852234   2.580499950   4.840718965
Ti       1.489853724   0.860165790   2.420359482

     NEW-OLD atomic charge density approx. for the potential
     extrapolated charge   22.39992, renormalised to   24.00000

[...]

     enthalpy old            =    -233.2867357157 Ry
     enthalpy new            =    -233.3005011272 Ry

     CASE: enthalpy_new < enthalpy_old

[...]

     iteration #  1     ecut=    40.00 Ry     beta=0.60
     Davidson diagonalization with overlap
     c_bands:  1 eigenvalues not converged
     c_bands:  1 eigenvalues not converged
     c_bands:  1 eigenvalues not converged
     ethr =  1.00E-06,  avg # of iterations =  9.5

[...]

     Threshold (ethr) on eigenvalues was too large:
     Diagonalizing with lowered threshold

     Davidson diagonalization with overlap
     ethr =  1.99E-08,  avg # of iterations =  2.7

[...]

     small trust_radius: resetting bfgs history

[...]

     number of scf cycles    =   9
     number of bfgs steps    =   8

     enthalpy old            =    -233.3061908569 Ry
     enthalpy new            =    -233.3061908571 Ry

     CASE: enthalpy_new < enthalpy_old

     Message from routine bfgs:
     history already reset at previous step: stopping
     small trust_radius: resetting bfgs history

     new trust radius        =       0.0000101593 bohr
     new conv_thr            =            1.0E-12 Ry

     new unit-cell volume =    232.76843 a.u.^3 (    34.49272 Ang^3 )

[...]

ATOMIC_POSITIONS (angstrom)
Ti       1.465151872   2.537717671   4.638436578
Ti       1.465153338   0.845905045   2.319218289

     NEW-OLD atomic charge density approx. for the potential
     extrapolated charge   24.00012, renormalised to   24.00000

[...]

     Threshold (ethr) on eigenvalues was too large:
     Diagonalizing with lowered threshold

     Davidson diagonalization with overlap
     ethr =  1.70E-11,  avg # of iterations =  1.3

[...]

     bfgs converged in  10 scf cycles and   9 bfgs steps
     (criteria: energy <  1.0E-10, force <  1.0E-05, cell <  1.0E-03)

     End of BFGS Geometry Optimization

     Final enthalpy =    -233.3061908572 Ry
Begin final coordinates
     new unit-cell volume =    232.76843 a.u.^3 (    34.49272 Ang^3 )

CELL_PARAMETERS (alat=  1.88972599)
   2.930303744  -0.000000000   0.000000000
  -1.465151872   2.537717671  -0.000000000
   0.000000000  -0.000000000   4.638436578

ATOMIC_POSITIONS (angstrom)
Ti       1.465151872   2.537717671   4.638436578
Ti       1.465153338   0.845905045   2.319218289
End final coordinates

     A final scf calculation at the relaxed structure.
     The G-vectors are recalculated for the final unit cell
     Results may differ from those at the preceding step.

   Info: using nr1, nr2, nr3 values from input

   Info: using nr1, nr2, nr3 values from input

     bravais-lattice index     =            0
     lattice parameter (alat)  =       1.8897  a.u.
     unit-cell volume          =     232.7684 (a.u.)^3
     number of atoms/cell      =            2
     number of atomic types    =            1
     number of electrons       =        24.00
     number of Kohn-Sham states=           16
     kinetic-energy cutoff     =      40.0000  Ry
     charge density cutoff     =     400.0000  Ry
     convergence threshold     =      1.0E-12
     mixing beta               =       0.6000
     number of iterations used =            8  plain     mixing
     Exchange-correlation      = SLA  PW   PBE  PBE ( 1  4  3  4 0 0)

     celldm(1)=   1.889726  celldm(2)=   0.000000  celldm(3)=   0.000000
     celldm(4)=   0.000000  celldm(5)=   0.000000  celldm(6)=   0.000000

     crystal axes: (cart. coord. in units of alat)
               a(1) = (   2.930304  -0.000000   0.000000 )
               a(2) = (  -1.465152   2.537718  -0.000000 )
               a(3) = (   0.000000  -0.000000   4.638437 )

     reciprocal axes: (cart. coord. in units 2 pi/alat)
               b(1) = (  0.341262  0.197027 -0.000000 )
               b(2) = (  0.000000  0.394055  0.000000 )
               b(3) = ( -0.000000  0.000000  0.215590 )

     PseudoPot. # 1 for Ti read from file:
     ./Ti.pbe-sp-van_ak.UPF
     MD5 check sum: f98fea3e8887528921fefa5636a534ca
     Pseudo is Ultrasoft, Zval = 12.0
     Generated by new atomic code, or converted to UPF format
     Using radial grid of  851 points,  6 beta functions with:
                l(1) =   0
                l(2) =   0
                l(3) =   1
                l(4) =   1
                l(5) =   2
                l(6) =   2
     Q(r) pseudized with  8 coefficients,  rinner =    1.000   1.000   1.000
                                                       1.000   1.000

     atomic species   valence    mass     pseudopotential
        Ti            12.00    47.86700     Ti( 1.00)

     12 Sym. Ops. (no inversion) found
          (note: 12 additional sym.ops. were found but ignored
           their fractional translations are incommensurate with FFT grid)

   Cartesian axes

     site n.     atom                  positions (alat units)
         1           Ti  tau(   1) = (   1.4651520   2.5377179   4.6384369  )
         2           Ti  tau(   2) = (   1.4651534   0.8459051   2.3192185  )

     number of k points=   280  Marzari-Vanderbilt smearing, width (Ry)=  0.0200

     Number of k-points >= 100: set verbosity='high' to print them.

     Initial potential from superposition of free atoms

     starting charge   21.99991, renormalised to   24.00000
     Starting wfc are   20 randomized atomic wfcs

     Self-consistent Calculation

     iteration #  1     ecut=    40.00 Ry     beta=0.60
     Davidson diagonalization with overlap
     c_bands:  1 eigenvalues not converged
     c_bands:  1 eigenvalues not converged
     c_bands:  1 eigenvalues not converged
     c_bands:  2 eigenvalues not converged
     c_bands:  1 eigenvalues not converged
     c_bands:  1 eigenvalues not converged
     c_bands:  1 eigenvalues not converged
     c_bands:  1 eigenvalues not converged
     c_bands:  1 eigenvalues not converged
     c_bands:  1 eigenvalues not converged
     c_bands:  1 eigenvalues not converged
     c_bands:  2 eigenvalues not converged
     c_bands:  2 eigenvalues not converged
     c_bands:  1 eigenvalues not converged
     c_bands:  1 eigenvalues not converged
     c_bands:  1 eigenvalues not converged
     c_bands:  1 eigenvalues not converged
     c_bands:  1 eigenvalues not converged
     ethr =  1.00E-06,  avg # of iterations = 12.4

[...]

     total energy              =    -233.30379645 Ry
     Harris-Foulkes estimate   =    -233.30379645 Ry
     estimated scf accuracy    <          1.6E-12 Ry

     iteration # 13     ecut=    40.00 Ry     beta=0.60
     Davidson diagonalization with overlap
     ethr =  1.00E-13,  avg # of iterations =  1.3

     End of self-consistent calculation

     Number of k-points >= 100: set verbosity='high' to print the bands.

     the Fermi energy is    13.4602 ev

!    total energy              =    -233.30379645 Ry
     Harris-Foulkes estimate   =    -233.30379645 Ry
     estimated scf accuracy    <          1.4E-14 Ry

     The total energy is the sum of the following terms:

     one-electron contribution =     -82.65063161 Ry
     hartree contribution      =      48.74100007 Ry
     xc contribution           =     -29.05283746 Ry
     ewald contribution        =    -170.34149438 Ry
     smearing contrib. (-TS)   =       0.00016693 Ry

     convergence has been achieved in  13 iterations

     Forces acting on atoms (Ry/au):

     atom    1 type  1   force =    -0.00000000   -0.00000000    0.00000000
     atom    2 type  1   force =     0.00000000    0.00000000   -0.00000000

     Total force =     0.000000     Total SCF correction =     0.000000

     entering subroutine stress ...

          total   stress  (Ry/bohr**3)                   (kbar)     P=   -9.22
  -0.00005855  -0.00000000   0.00000000         -8.61     -0.00      0.00
  -0.00000000  -0.00005855  -0.00000000         -0.00     -8.61     -0.00
   0.00000000  -0.00000000  -0.00007091          0.00     -0.00    -10.43

     General routines

     Parallel routines

   This run was terminated on:  16:30: 1  25Apr2018

   JOB DONE.