     Program PWSCF v.6.3MaX starts on 13Jan2020 at 13:23:20

     Waiting for input...
     Reading input from standard input

     Current dimensions of program PWSCF are:
     Max number of different atomic species (ntypx) = 10
     Max number of k-points (npk) =  40000
     Max angular momentum in pseudopotentials (lmaxx) =  3
     Message from routine iosys:
     minimal I/O required, wf_collect reset to FALSE

     Subspace diagonalization in iterative solution of the eigenvalue problem:
     a serial algorithm will be used

     bravais-lattice index     =            0
     lattice parameter (alat)  =       1.8897  a.u.
     unit-cell volume          =     146.6684 (a.u.)^3
     number of atoms/cell      =            1
     number of atomic types    =            1
     number of electrons       =        12.00
     number of Kohn-Sham states=           10
     kinetic-energy cutoff     =      50.0000  Ry
     charge density cutoff     =     500.0000  Ry
     convergence threshold     =      1.0E-10
     mixing beta               =       0.6000
     number of iterations used =            8  plain     mixing
     Exchange-correlation      = SLA PW PBE PBE ( 1  4  3  4 0 0)
     nstep                     =           50

     celldm(1)=   1.889726  celldm(2)=   0.000000  celldm(3)=   0.000000
     celldm(4)=   0.000000  celldm(5)=   0.000000  celldm(6)=   0.000000

     crystal axes: (cart. coord. in units of alat)
               a(1) = (   1.758031  -1.758031   1.758031 )
               a(2) = (   1.758031   1.758031  -1.758031 )
               a(3) = (  -1.758031   1.758031   1.758031 )

     reciprocal axes: (cart. coord. in units 2 pi/alat)
               b(1) = (  0.284409  0.000000  0.284409 )
               b(2) = (  0.284409  0.284409  0.000000 )
               b(3) = (  0.000000  0.284409  0.284409 )

     PseudoPot. # 1 for Ti read from file:
     /home/u16/abhishekkt/fp/krishna/calculations/pseudopotentials/Ti.pbe-sp-van_ak.UPF
     MD5 check sum: 84d3ec9e8983e94242673103c800fb48
     Pseudo is Ultrasoft, Zval = 12.0
     Generated by new atomic code, or converted to UPF format
     Using radial grid of  851 points,  6 beta functions with:
                l(1) =   0
                l(2) =   0
                l(3) =   1
                l(4) =   1
                l(5) =   2
                l(6) =   2
     Q(r) pseudized with  8 coefficients,  rinner =    1.000   1.000   1.000
                                                       1.000   1.000

     atomic species   valence    mass     pseudopotential
        Ti            12.00    47.86700     Ti( 1.00)

     48 Sym. Ops., with inversion, found

   Cartesian axes

     site n.     atom                  positions (alat units)
         1           Ti  tau(   1) = (   1.7580316   1.7580316   1.7580316  )

     number of k points=   256  Marzari-Vanderbilt smearing, width (Ry)=  0.0200

     Number of k-points >= 100: set verbosity='high' to print them.

     Initial potential from superposition of free atoms

     starting charge   10.99996, renormalised to   12.00000
     Starting wfcs are   10 randomized atomic wfcs

     Self-consistent Calculation

     iteration #  1     ecut=    50.00 Ry     beta= 0.60
     Davidson diagonalization with overlap
     ethr =  1.00E-02,  avg # of iterations =  3.3

     total energy              =    -116.31767769 Ry
     Harris-Foulkes estimate   =    -116.93493854 Ry
     estimated scf accuracy    <       0.85757240 Ry

[...]

     End of self-consistent calculation

     Number of k-points >= 100: set verbosity='high' to print the bands.

     the Fermi energy is     9.9591 ev

!    total energy              =    -116.62480541 Ry
     Harris-Foulkes estimate   =    -116.62480541 Ry
     estimated scf accuracy    <          4.8E-11 Ry

     The total energy is the sum of the following terms:

     one-electron contribution =     -50.88972895 Ry
     hartree contribution      =      27.51441132 Ry
     xc contribution           =     -14.37791508 Ry
     ewald contribution        =     -78.87092309 Ry
     smearing contrib. (-TS)   =      -0.00064961 Ry

     convergence has been achieved in  10 iterations

     Forces acting on atoms (cartesian axes, Ry/au):

     atom    1 type  1   force =     0.00000000    0.00000000    0.00000000

     Total force =     0.000000     Total SCF correction =     0.000000

     Computing stress (Cartesian axis) and pressure

          total   stress  (Ry/bohr**3)                   (kbar)     P= -164.76
  -0.00112002   0.00000000   0.00000000       -164.76      0.00      0.00
   0.00000000  -0.00112002   0.00000000          0.00   -164.76      0.00
   0.00000000   0.00000000  -0.00112002          0.00      0.00   -164.76

     BFGS Geometry Optimization

     number of scf cycles    =   1
     number of bfgs steps    =   0

     enthalpy new            =    -116.6248054110 Ry

     new trust radius        =       0.0678209724 bohr
     new conv_thr            =            1.0E-10 Ry

     new unit-cell volume =    134.68976 a.u.^3 (    19.95896 Ang^3 )
     density =      3.98242 g/cm^3

CELL_PARAMETERS (alat=  1.88972599)
   1.708805738  -1.708805738   1.708805738
   1.708805738   1.708805738  -1.708805738
  -1.708805738   1.708805738   1.708805738

ATOMIC_POSITIONS (angstrom)
Ti       1.708805738   1.708805738   1.708805738

     NEW-OLD atomic charge density approx. for the potential
     extrapolated charge   11.02172, renormalised to   12.00000

[...]

     enthalpy old            =    -116.6248054110 Ry
     enthalpy new            =    -116.6366219255 Ry

     CASE: enthalpy_new < enthalpy_old

[...]

     small trust_radius: resetting bfgs history

[...]

     Threshold (ethr) on eigenvalues was too large:
     Diagonalizing with lowered threshold

     Davidson diagonalization with overlap
     ethr =  1.12E-09,  avg # of iterations =  1.0

[...]

     number of scf cycles    =   6
     number of bfgs steps    =   5

     enthalpy old            =    -116.6453216282 Ry
     enthalpy new            =    -116.6453216300 Ry

     CASE: enthalpy_new < enthalpy_old

     Message from routine bfgs:
     history already reset at previous step: stopping
     small trust_radius: resetting bfgs history

     new trust radius        =       0.0000184106 bohr
     new conv_thr            =            1.0E-12 Ry

     new unit-cell volume =    115.92532 a.u.^3 (    17.17836 Ang^3 )
     density =      4.62704 g/cm^3

[...]

ATOMIC_POSITIONS (angstrom)
Ti       1.625451207   1.625451207   1.625451207

     NEW-OLD atomic charge density approx. for the potential
     extrapolated charge   11.99972, renormalised to   12.00000

[...]

     Threshold (ethr) on eigenvalues was too large:
     Diagonalizing with lowered threshold

     Davidson diagonalization with overlap
     ethr =  4.52E-10,  avg # of iterations =  1.0

[...]

     bfgs converged in   7 scf cycles and   6 bfgs steps
     (criteria: energy <  1.0E-10 Ry, force <  1.0E-05Ry/Bohr, cell <  1.0E-03kbar)

     End of BFGS Geometry Optimization

     Final enthalpy =    -116.6453216306 Ry
Begin final coordinates
     new unit-cell volume =    115.92532 a.u.^3 (    17.17836 Ang^3 )
     density =      4.62704 g/cm^3

CELL_PARAMETERS (alat=  1.88972599)
   1.625451207  -1.625451207   1.625451207
   1.625451207   1.625451207  -1.625451207
  -1.625451207   1.625451207   1.625451207

ATOMIC_POSITIONS (angstrom)
Ti       1.625451207   1.625451207   1.625451207
End final coordinates

     A final scf calculation at the relaxed structure.
     The G-vectors are recalculated for the final unit cell
     Results may differ from those at the preceding step.

     bravais-lattice index     =            0
     lattice parameter (alat)  =       1.8897  a.u.
     unit-cell volume          =     115.9253 (a.u.)^3
     number of atoms/cell      =            1
     number of atomic types    =            1
     number of electrons       =        12.00
     number of Kohn-Sham states=           10
     kinetic-energy cutoff     =      50.0000  Ry
     charge density cutoff     =     500.0000  Ry
     convergence threshold     =      1.0E-12
     mixing beta               =       0.6000
     number of iterations used =            8  plain     mixing
     Exchange-correlation      = SLA PW PBE PBE ( 1  4  3  4 0 0)

     celldm(1)=   1.889726  celldm(2)=   0.000000  celldm(3)=   0.000000
     celldm(4)=   0.000000  celldm(5)=   0.000000  celldm(6)=   0.000000

     crystal axes: (cart. coord. in units of alat)
               a(1) = (   1.625451  -1.625451   1.625451 )
               a(2) = (   1.625451   1.625451  -1.625451 )
               a(3) = (  -1.625451   1.625451   1.625451 )

     reciprocal axes: (cart. coord. in units 2 pi/alat)
               b(1) = (  0.307607  0.000000  0.307607 )
               b(2) = (  0.307607  0.307607  0.000000 )
               b(3) = (  0.000000  0.307607  0.307607 )

     PseudoPot. # 1 for Ti read from file:
     /home/u16/abhishekkt/fp/krishna/calculations/pseudopotentials/Ti.pbe-sp-van_ak.UPF
     MD5 check sum: 84d3ec9e8983e94242673103c800fb48
     Pseudo is Ultrasoft, Zval = 12.0
     Generated by new atomic code, or converted to UPF format
     Using radial grid of  851 points,  6 beta functions with:
                l(1) =   0
                l(2) =   0
                l(3) =   1
                l(4) =   1
                l(5) =   2
                l(6) =   2
     Q(r) pseudized with  8 coefficients,  rinner =    1.000   1.000   1.000
                                                       1.000   1.000

     atomic species   valence    mass     pseudopotential
        Ti            12.00    47.86700     Ti( 1.00)

     48 Sym. Ops., with inversion, found

   Cartesian axes

     site n.     atom                  positions (alat units)
         1           Ti  tau(   1) = (   1.6254513   1.6254513   1.6254513  )

     number of k points=   256  Marzari-Vanderbilt smearing, width (Ry)=  0.0200

     Number of k-points >= 100: set verbosity='high' to print them.

     Initial potential from superposition of free atoms

     starting charge   10.99996, renormalised to   12.00000
     Starting wfcs are   10 randomized atomic wfcs

     Self-consistent Calculation

[...]

     total energy              =    -116.64521670 Ry
     Harris-Foulkes estimate   =    -116.64521670 Ry
     estimated scf accuracy    <          2.6E-12 Ry

     iteration # 14     ecut=    50.00 Ry     beta= 0.60
     Davidson diagonalization with overlap
     ethr =  1.00E-13,  avg # of iterations =  1.0

     End of self-consistent calculation

     Number of k-points >= 100: set verbosity='high' to print the bands.

     the Fermi energy is    13.2793 ev

!    total energy              =    -116.64521670 Ry
     Harris-Foulkes estimate   =    -116.64521670 Ry
     estimated scf accuracy    <          8.0E-14 Ry

     The total energy is the sum of the following terms:

     one-electron contribution =     -41.15462641 Ry
     hartree contribution      =      24.35247337 Ry
     xc contribution           =     -14.53909970 Ry
     ewald contribution        =     -85.30404767 Ry
     smearing contrib. (-TS)   =       0.00008371 Ry

     convergence has been achieved in  14 iterations

     Forces acting on atoms (cartesian axes, Ry/au):

     atom    1 type  1   force =     0.00000000    0.00000000    0.00000000

     Total force =     0.000000     Total SCF correction =     0.000000

     Computing stress (Cartesian axis) and pressure

          total   stress  (Ry/bohr**3)                   (kbar)     P=    0.42
   0.00000285  -0.00000000  -0.00000000          0.42     -0.00     -0.00
  -0.00000000   0.00000285  -0.00000000         -0.00      0.42     -0.00
  -0.00000000  -0.00000000   0.00000285         -0.00     -0.00      0.42

     General routines

     Parallel routines

   This run was terminated on:  13:35:33  13Jan2020

   JOB DONE.